79
*****
C         12.47589        6.64271       -3.29530
C         12.60919        7.34061       -1.94884
Si        14.02243        6.65882       -0.82450
C         15.67169        6.81777       -1.72011
C         15.96718        8.18631       -2.32444
C         14.02877        7.84811        0.70431
C         15.09074        7.52960        1.74756
N         13.57789        5.07456       -0.24390
C         14.34128        3.92604       -0.17631
C         15.67613        3.63145       -0.51796
C         16.16276        2.33661       -0.31264
C         15.35266        1.34763        0.22393
C         14.02955        1.63290        0.56367
C         13.50592        2.92961        0.36056
C         12.21501        3.50622        0.58982
C         10.98576        2.81692        1.11800
C         10.09728        2.12193        0.05051
N          9.42020        3.05218       -0.85582
C         10.08555        3.47856       -2.08852
C         10.98201        2.43496       -2.73120
C         11.22118        1.17101       -2.00584
C         10.81170        1.05573       -0.73712
O         11.51744        2.61021       -3.82479
C         12.32518        4.84306        0.26520
C          8.26208        3.67235       -0.41999
O          7.89383        4.69673       -1.22938
C          6.60720        5.29987       -0.99812
C          6.47054        6.09945        0.30737
C          7.44082        7.27056        0.42869
C          8.82250        7.23590        0.52756
C          9.50685        8.44302        0.67855
C          8.81010        9.66017        0.73285
C          7.41499        9.68975        0.64825
C          6.73553        8.49065        0.50436
C          5.31647        8.21703        0.44274
C          5.12247        6.82177        0.34770
C          3.84914        6.27401        0.29366
C          2.75698        7.14365        0.31845
C          2.94609        8.53290        0.40315
C          4.23178        9.07815        0.46991
O          7.64315        3.34203        0.58289
H         11.67251        7.08366       -3.84759
H         12.27375        5.60352       -3.13993
H         13.38774        6.75043       -3.84469
H         11.68334        7.23160       -1.42367
H         12.85557        8.36029       -2.15966
H         15.68620        6.09860       -2.51225
H         16.42399        6.65914       -0.97594
H         15.24379        8.40550       -3.08177
H         16.94593        8.18149       -2.75680
H         15.91916        8.93221       -1.55878
H         13.06980        7.79168        1.17558
H         14.25386        8.82462        0.32926
H         14.90943        6.55728        2.15574
H         15.05151        8.25802        2.53036
H         16.05770        7.54964        1.28985
H         16.28719        4.36228       -0.91484
H         17.13862        2.11406       -0.56404
H         15.72903        0.39825        0.37242
H         13.43114        0.89398        0.96483
H         10.38724        3.54877        1.61907
H         11.33948        2.03634        1.75869
H          9.34372        1.63879        0.63671
H         10.68443        4.33593       -1.86238
H          9.30619        3.67703       -2.79429
H         11.69929        0.38458       -2.47271
H         11.00137        0.16135       -0.25843
H         11.58578        5.55284        0.38577
H          5.87596        4.51886       -0.98328
H          6.47057        6.00748       -1.78902
H          6.63031        5.36370        1.06767
H          9.33295        6.33974        0.49048
H         10.53630        8.44052        0.75105
H          9.33367       10.54344        0.83642
H          6.90263       10.58452        0.69198
H          3.71290        5.25263        0.23675
H          1.79951        6.76116        0.27402
H          2.12578        9.15896        0.41626
H          4.36952       10.09866        0.53785
