71
*****
C          6.97758       -9.25676        3.57849
Si         5.46114       -9.74313        2.59347
C          5.75686      -11.38336        1.73483
C          3.89886      -10.06509        4.07615
C          3.63845       -8.66418        4.69478
C          2.61867      -10.66166        3.36609
C          2.64080      -12.18925        3.20407
C          1.30889      -10.30330        4.08862
C          4.49803      -10.98952        5.16138
N          4.83527       -8.52369        1.51482
C          4.93439       -7.14910        1.63076
C          5.54810       -6.30069        2.57429
C          5.45721       -4.91542        2.40308
C          4.77372       -4.37295        1.32439
C          4.16014       -5.20756        0.38912
C          4.23622       -6.60987        0.53732
C          3.71038       -7.69599       -0.22725
C          2.86227       -7.59701       -1.46098
C          1.39194       -7.23287       -1.15098
N          0.56923       -6.98689       -2.37169
C          0.21103       -8.20899       -3.13544
C         -0.44008       -9.25149       -2.25557
C         -0.15620       -9.21310       -0.80395
C          0.69445       -8.29489       -0.32886
O         -1.13920      -10.15768       -2.70482
C          4.11905       -8.85803        0.39454
O          1.96895       -6.15636       -4.31378
S          1.04707       -5.65821       -3.31512
C         -0.46333       -5.19308       -4.12035
C         -1.53727       -4.75435       -3.33932
C         -2.73239       -4.39336       -3.95984
C         -2.84720       -4.46751       -5.34937
C         -1.76834       -4.89907       -6.12414
C         -0.56897       -5.26253       -5.51183
O          1.41138       -4.57554       -2.42750
H          7.27438      -10.07345        4.20285
H          6.74994       -8.40678        4.18728
H          7.77493       -9.01212        2.90821
H          6.13896      -12.09141        2.44021
H          6.46546      -11.24947        0.94435
H          4.83494      -11.74528        1.32990
H          3.22344       -8.01715        3.95045
H          4.56074       -8.25402        5.04981
H          2.95179       -8.75641        5.51019
H          2.65112      -10.20513        2.39891
H          2.60850      -12.65075        4.16889
H          3.53761      -12.48138        2.69881
H          1.79169      -12.49954        2.63168
H          1.29453      -10.76797        5.05235
H          0.47704      -10.65116        3.51249
H          1.24398       -9.24148        4.20362
H          5.35673      -10.52079        5.59477
H          4.78522      -11.92016        4.71830
H          3.76673      -11.16724        5.92198
H          6.05736       -6.69601        3.38014
H          5.90503       -4.28779        3.08904
H          4.71883       -3.34842        1.21322
H          3.65091       -4.79999       -0.41063
H          2.88155       -8.54044       -1.96544
H          3.26670       -6.81369       -2.06739
H          1.46394       -6.32356       -0.59164
H          1.10027       -8.62316       -3.56277
H         -0.48892       -7.93212       -3.89591
H         -0.60844       -9.88597       -0.16540
H          0.89124       -8.31284        0.68404
H          3.91922       -9.81735        0.07082
H         -1.44592       -4.69831       -2.31290
H         -3.53194       -4.07144       -3.39230
H         -3.73371       -4.20208       -5.80619
H         -1.85862       -4.94913       -7.15096
H          0.23183       -5.57935       -6.08049
