61
*****
C         13.98818        5.96717        5.01152
C         13.21906        5.97681        6.32569
Si        12.69682        4.24875        6.96817
C         14.24424        3.25711        7.44692
C         15.15744        3.91556        8.47251
C         11.63516        4.56655        8.53373
C         11.09513        3.31148        9.20613
N         11.72461        3.43200        5.77287
C         10.58471        3.91580        5.15917
C          9.85533        5.11421        5.29871
C          8.72326        5.31235        4.50280
C          8.31679        4.34976        3.58919
C          9.03330        3.15841        3.45416
C         10.17889        2.92829        4.24724
C         11.09342        1.83335        4.35100
C         11.05833        0.54567        3.58353
C         12.20662        0.40422        2.55642
N         12.24173       -0.93673        1.96289
C         11.38426       -1.23392        0.81445
C         11.23999       -0.09528       -0.17959
C         11.72714        1.24170        0.21130
C         12.14498        1.44369        1.46575
O         10.67740       -0.23509       -1.26392
C         12.02487        2.17931        5.31101
C         12.79239       -1.95419        2.72422
O         12.59729       -3.18181        2.17581
C         13.15392       -4.30715        2.89282
C         14.47197       -4.81349        2.28054
Cl        15.76755       -3.58414        2.35103
Cl        15.02097       -6.26739        3.18057
Cl        14.22224       -5.28227        0.56574
O         13.37582       -1.77718        3.78552
H         14.23478        6.97104        4.73522
H         13.38328        5.52531        4.24748
H         14.88692        5.39841        5.12840
H         12.33371        6.56175        6.18829
H         13.88446        6.38112        7.05964
H         14.81532        3.08883        6.55785
H         13.88586        2.36033        7.90762
H         15.55074        4.82481        8.06819
H         15.96328        3.25291        8.71005
H         14.59993        4.13158        9.35988
H         10.80301        5.17775        8.25289
H         12.28220        5.03454        9.24592
H         10.43775        2.80124        8.53353
H         10.55890        3.58361       10.09118
H         11.90929        2.66772        9.46616
H         10.15215        5.83310        5.97703
H          8.18237        6.18630        4.59582
H          7.48104        4.51510        3.00678
H          8.72528        2.44575        2.77426
H         10.12714        0.48971        3.05945
H         11.17418       -0.24590        4.29409
H         13.10949        0.56288        3.10828
H         10.41011       -1.48214        1.18094
H         11.85261       -2.03860        0.28716
H         11.74523        2.01196       -0.47528
H         12.45329        2.39794        1.70942
H         12.81319        1.59264        5.62625
H         12.44227       -5.10609        2.88017
H         13.36697       -3.98007        3.88908
