76
*****
Si        10.00816       -4.21283        5.01506
C          9.35316       -4.08831        6.87491
C         10.46008       -4.26340        7.92569
C          8.61644       -2.77083        7.16565
C         10.26751       -6.17705        4.58183
C         11.23071       -6.87767        5.54381
C          8.95685       -6.96171        4.49004
C         11.81447       -3.41574        4.92947
C         12.64207       -3.82975        3.70590
C         11.81935       -1.89171        5.09623
N          8.86639       -3.58086        3.84772
C          7.49388       -3.77324        3.82404
C          6.59491       -4.43563        4.68751
C          5.23290       -4.45796        4.37283
C          4.75966       -3.84336        3.22416
C          5.64370       -3.19241        2.36264
C          7.02511       -3.15139        2.65479
C          8.14804       -2.59045        1.97224
C          8.13737       -1.85720        0.65889
C          9.05485       -2.49829       -0.41101
N          8.84053       -3.91254       -0.72931
C          9.92271       -4.51918       -1.50560
C         10.13701       -3.70888       -2.78800
C          9.58550       -2.32275       -2.84837
C          9.08803       -1.76458       -1.73211
O         10.81990       -4.11999       -3.72433
C          9.25551       -2.85320        2.75504
O          6.53355       -3.75384       -0.78729
C          7.55457       -4.42167       -0.86654
O          7.57001       -5.75986       -1.09561
C          6.34022       -6.52202       -1.19463
C          5.52401       -6.09758       -2.41945
C          6.80164       -7.97449       -1.38920
C          5.52243       -6.43984        0.09922
H          8.66587       -4.90430        6.95677
H         11.15331       -3.45166        7.85212
H         10.97252       -5.18679        7.75347
H         10.02538       -4.27369        8.90336
H          9.30202       -1.95336        7.08431
H          8.21150       -2.79958        8.15565
H          7.82298       -2.64250        6.45935
H         10.71003       -6.17476        3.60763
H         10.80677       -6.89110        6.52615
H         12.16126       -6.34988        5.56411
H         11.39726       -7.88168        5.21346
H          8.48633       -6.98376        5.45078
H          9.16167       -7.96202        4.17015
H          8.30616       -6.48796        3.78501
H         12.30450       -3.83911        5.78125
H         12.19368       -3.43034        2.82028
H         12.67202       -4.89731        3.64019
H         13.63775       -3.45037        3.80380
H         11.33428       -1.43948        4.25652
H         12.82907       -1.54262        5.15544
H         11.29810       -1.62937        5.99310
H          6.93970       -4.89894        5.54278
H          4.57184       -4.93788        5.00346
H          3.75137       -3.86718        3.00554
H          5.28628       -2.73854        1.50749
H          8.46480       -0.85276        0.82860
H          7.13665       -1.89832        0.28238
H          9.98612       -2.41300        0.10895
H          9.66186       -5.52585       -1.75754
H         10.82281       -4.52198       -0.92705
H          9.58640       -1.79918       -3.73770
H          8.71623       -0.80299       -1.77819
H         10.22032       -2.55002        2.54949
H          6.13273       -6.17047       -3.29641
H          5.19550       -5.08673       -2.29632
H          4.67369       -6.73907       -2.52118
H          7.37485       -8.04904       -2.28963
H          5.94668       -8.61433       -1.45665
H          7.40475       -8.27167       -0.55682
H          5.19300       -5.43297        0.24960
H          6.13074       -6.74325        0.92553
H          4.67267       -7.08591        0.02571
