75
*****
Si         7.71263        3.36098        4.48514
C          8.59766        2.01515        5.54228
C          8.01690        0.74423        5.72302
C          8.66293       -0.24378        6.47048
C          9.90311        0.01435        7.04526
C         10.50069        1.25883        6.86978
C          9.85813        2.25030        6.12275
C          8.62962        4.99805        4.89150
C          9.51384        5.57392        3.95769
C         10.20660        6.75072        4.25354
C         10.04310        7.36626        5.49033
C          9.19179        6.80231        6.43554
C          8.49504        5.62656        6.14275
C          5.71000        3.51077        5.11289
C          5.59233        3.14882        6.61040
C          5.17006        4.93983        4.90011
C          4.85264        2.52501        4.28419
N          7.73870        2.98148        2.77459
C          7.33783        3.78941        1.72392
C          6.88247        5.12139        1.65492
C          6.52223        5.65061        0.41200
C          6.61880        4.88739       -0.74327
C          7.09633        3.57668       -0.68396
C          7.46958        3.01813        0.55780
C          8.01559        1.75170        0.92877
C          8.37255        0.62151        0.01234
C          7.16102       -0.23330       -0.42415
N          7.53181       -1.20094       -1.46185
C          8.15420       -2.46573       -1.06467
C          7.58670       -3.07295        0.20656
C          6.67793       -2.25128        1.03073
C          6.51261       -0.95848        0.72887
O          7.90119       -4.19508        0.59856
C          8.18216        1.77358        2.29852
C          7.61857       -0.73853       -2.76368
O          8.14405       -1.66134       -3.61067
C          8.21819       -1.29421       -5.00706
C          7.10330       -1.94086       -5.84810
Cl         5.47689       -1.40144       -5.33815
Cl         7.33223       -1.50156       -7.57363
Cl         7.17987       -3.72948       -5.71371
O          7.27302        0.38098       -3.11805
H          7.09967        0.53983        5.29649
H          8.21912       -1.16693        6.59641
H         10.37845       -0.71460        7.59996
H         11.42219        1.45055        7.29298
H         10.31418        3.16722        5.99509
H          9.65186        5.11964        3.04139
H         10.84124        7.16436        3.55271
H         10.55141        8.23810        5.70604
H          9.07443        7.25380        7.35609
H          7.87278        5.21350        6.85493
H          6.18353        3.82758        7.18891
H          5.94306        2.14975        6.76449
H          4.56893        3.21849        6.91483
H          5.75610        5.63093        5.46918
H          4.15059        4.98745        5.22152
H          5.22893        5.19246        3.86203
H          5.21851        1.52930        4.42424
H          4.91241        2.78448        3.24784
H          3.83406        2.57947        4.60733
H          6.81595        5.69724        2.50873
H          6.17974        6.62231        0.35269
H          6.33634        5.29057       -1.65030
H          7.17637        3.01666       -1.54708
H          9.07006       -0.01430        0.51646
H          8.78286        1.05694       -0.87475
H          6.44760        0.45735       -0.82282
H          9.19926       -2.29175       -0.91474
H          7.95582       -3.16361       -1.85112
H          6.17636       -2.66923        1.82996
H          5.88660       -0.40911        1.33824
H          8.57483        1.00887        2.86953
H          9.16522       -1.60758       -5.39413
H          8.09815       -0.23285       -5.07029
