76
*****
C         10.18671       -4.44836        7.96678
Si         9.37262       -2.87513        7.29517
C          7.79297       -2.59736        8.37020
C          7.84257       -2.76873        9.76612
C          6.70337       -2.56503       10.54796
C          5.50371       -2.18430        9.95186
C          5.44054       -2.00083        8.57281
C          6.57584       -2.20177        7.78458
C         10.42760       -1.35511        7.66380
C         11.82118       -1.46827        7.83135
C         12.60503       -0.34237        8.09818
C         12.01402        0.91349        8.20363
C         10.63808        1.04691        8.04316
C          9.85020       -0.07542        7.77589
N          8.93459       -3.16719        5.63200
C          9.33994       -2.49104        4.49589
C         10.21078       -1.40455        4.27824
C         10.40228       -0.93664        2.97435
C          9.74960       -1.52565        1.90169
C          8.89047       -2.60563        2.11002
C          8.68160       -3.10391        3.41536
C          7.89585       -4.18181        3.93027
C          7.02589       -5.12429        3.15317
C          7.71210       -6.47113        2.83648
N          6.69697       -7.42222        2.30866
C          6.40756       -7.32124        0.86143
C          7.66128       -7.36773        0.02331
C          8.88247       -6.76327        0.59736
C          8.86475       -6.34284        1.86846
O          7.69455       -7.83211       -1.11257
C          8.08904       -4.19750        5.29642
S          6.58722       -8.94856        3.02791
C          8.01160       -9.81044        2.38758
C          9.22421       -9.75406        3.08228
C         10.34952      -10.43131        2.58876
C         11.66163      -10.37298        3.33793
F         11.89641       -9.14698        3.88274
F         11.71034      -11.26041        4.36637
F         12.73884      -10.64306        2.55119
C         10.22366      -11.18899        1.41061
C          9.00035      -11.27022        0.71928
C          8.89203      -12.11586       -0.53105
F          9.90110      -11.87236       -1.41126
F          8.95110      -13.44669       -0.25265
F          7.73462      -11.92567       -1.21907
C          7.88891      -10.58130        1.22603
O          6.78192       -8.79401        4.45333
O          5.41376       -9.61231        2.50426
H         10.46635       -4.29699        8.98844
H         11.05804       -4.67397        7.38817
H          9.49555       -5.26270        7.90306
H          8.72854       -3.04739       10.21603
H          6.75071       -2.69703       11.57039
H          4.66242       -2.03827       10.53146
H          4.55212       -1.71553        8.13197
H          6.52181       -2.05895        6.76394
H         12.26957       -2.39473        7.75613
H         13.62523       -0.44239        8.21741
H         12.59476        1.74360        8.40033
H         10.19860        1.97734        8.12179
H          8.83078        0.03478        7.65896
H         10.70061       -0.96018        5.07047
H         11.03858       -0.14139        2.80788
H          9.89966       -1.16432        0.94673
H          8.40688       -3.04102        1.30902
H          6.75723       -4.65496        2.22988
H          6.17164       -5.33968        3.76044
H          8.13210       -6.83819        3.74959
H          5.90286       -6.39637        0.67495
H          5.80012       -8.15903        0.58936
H          9.73661       -6.66677        0.02626
H          9.72106       -5.88723        2.22085
H          7.66874       -4.87059        5.95620
H          9.29131       -9.21366        3.95892
H         11.04514      -11.69583        1.04550
H          6.97961      -10.64285        0.74188
