85
*****
Si         8.41124       -0.99308        7.41903
C          9.21093        0.77416        7.33068
C         10.08354        1.23996        8.33050
C         10.65027        2.51453        8.24717
C         10.35116        3.34634        7.17138
C          9.47772        2.90990        6.17979
C          8.90716        1.63752        6.25935
C          7.23961       -0.95395        8.91976
C          6.93799        0.23472        9.61020
C          6.06505        0.23047       10.70214
C          5.47209       -0.95626       11.12200
C          5.74661       -2.14176       10.44809
C          6.61894       -2.14241        9.35653
C          9.96722       -2.35945        7.80203
C         10.19627       -2.47100        9.32781
C          9.56289       -3.75093        7.26279
C         11.27963       -1.90202        7.13140
N          7.65459       -1.33761        5.87444
C          6.31011       -1.25809        5.54809
C          5.15346       -0.92506        6.28211
C          3.90863       -0.95318        5.64490
C          3.80012       -1.29513        4.30561
C          4.94193       -1.60788        3.56792
C          6.21276       -1.58487        4.18445
C          7.53505       -1.78890        3.68347
C          7.92453       -2.10837        2.27010
C          8.33806       -0.89819        1.40152
N          7.19751        0.02841        1.18502
C          7.09843        1.20817        2.07174
C          8.40831        1.92886        2.25122
C          9.63888        1.11382        2.24787
C          9.56718       -0.17252        1.88688
O          8.48937        3.13734        2.45660
C          8.39209       -1.62124        4.75141
S          6.56637        0.16012       -0.37245
C          7.74723        1.22234       -1.18664
C          8.82698        0.65915       -1.87421
C          9.75184        1.48564       -2.53048
C         10.91602        0.87702       -3.27924
F         11.45934       -0.18406       -2.62024
F         10.55778        0.41699       -4.50715
F         11.93830        1.75162       -3.48393
C          9.55379        2.87771       -2.50893
C          8.45844        3.45074       -1.83619
C          8.25169        4.94966       -1.86113
F          9.40758        5.63854       -1.65550
F          7.76841        5.37748       -3.05912
F          7.37522        5.39215       -0.92023
C          7.54794        2.60742       -1.18263
O          6.64633       -1.14000       -1.00355
O          5.31456        0.88071       -0.30581
H         10.30784        0.63354        9.13484
H         11.29299        2.84057        8.98584
H         10.77634        4.28465        7.10949
H          9.25123        3.52731        5.38447
H          8.25429        1.32550        5.52353
H          7.36748        1.12242        9.30600
H          5.85952        1.11134       11.19899
H          4.83084       -0.95688       11.93060
H          5.30510       -3.02263       10.75495
H          6.81215       -3.02726        8.86182
H          9.29102       -2.78789        9.80214
H         10.48705       -1.51704        9.71551
H         10.96919       -3.18523        9.52117
H          8.65278       -4.06397        7.73034
H         10.33700       -4.45669        7.48088
H          9.41908       -3.69513        6.20397
H         11.55550       -0.93901        7.50744
H         11.13772       -1.84416        6.07243
H         12.05565       -2.60572        7.34934
H          5.22440       -0.66360        7.27791
H          3.05839       -0.71590        6.17951
H          2.87267       -1.31832        3.85359
H          4.85815       -1.85655        2.56984
H          7.08978       -2.58270        1.79778
H          8.79298       -2.72963        2.33906
H          8.62011       -1.31133        0.45565
H          6.75475        0.88380        3.03172
H          6.41892        1.89480        1.61163
H         10.54275        1.53069        2.52040
H         10.43877       -0.72188        1.94653
H          9.42059       -1.69673        4.71258
H          8.94379       -0.36592       -1.89899
H         10.22519        3.49151       -2.99626
H          6.72996        3.00895       -0.69816
