66
*****
C          3.76693        0.85266        9.78657
Si         3.07109        0.30377        8.12404
C          3.37847       -1.59644        7.97393
C          3.21126       -2.43626        9.09167
C          3.43440       -3.81125        8.98792
C          3.82725       -4.36736        7.77308
C          3.99614       -3.55084        6.65792
C          3.77379       -2.17528        6.75363
C          1.17862        0.47568        8.12572
C          0.60240        1.72752        8.42141
C         -0.78503        1.89228        8.44386
C         -1.62206        0.81442        8.17127
C         -1.07352       -0.42945        7.87371
C          0.31351       -0.59995        7.85098
N          3.87793        1.11485        6.80450
C          3.40725        1.32725        5.52165
C          2.17247        1.06381        4.89472
C          2.01823        1.37983        3.54144
C          3.06291        1.93112        2.81433
C          4.28838        2.18628        3.43117
C          4.46938        1.89780        4.80118
C          5.57344        2.06499        5.69474
C          6.92995        2.62773        5.37617
C          7.11747        4.13691        5.67641
N          6.40625        5.02662        4.75520
C          5.05436        5.48986        5.08099
C          4.77714        5.68615        6.56096
C          5.78641        5.22474        7.53415
C          6.83522        4.51318        7.10705
O          3.73638        6.19167        6.97873
C          5.17351        1.55433        6.91465
C          6.93935        5.19358        3.48943
O          6.11729        5.88371        2.65743
C          6.61509        6.14525        1.32499
C          6.09306        5.15720        0.26563
Cl         4.30003        5.08723        0.29857
Cl         6.59839        5.72116       -1.36466
Cl         6.72905        3.50319        0.49795
O          8.03381        4.76549        3.14691
H          3.25480        0.34052       10.57418
H          3.63049        1.90790        9.89946
H          4.81071        0.62129        9.83027
H          2.92118       -2.03220        9.99589
H          3.30776       -4.41679        9.81394
H          3.99299       -5.38330        7.69944
H          4.28658       -3.96343        5.75767
H          3.90058       -1.57784        5.92176
H          1.21379        2.53381        8.62420
H         -1.19010        2.81578        8.66318
H         -2.64656        0.93719        8.18973
H         -1.69319       -1.22893        7.66909
H          0.70873       -1.52723        7.62971
H          1.39404        0.64402        5.42657
H          1.11429        1.20035        3.07699
H          2.93359        2.15312        1.81482
H          5.06560        2.58755        2.88351
H          7.11303        2.47454        4.33314
H          7.61688        2.11480        6.01644
H          8.16305        4.29021        5.50856
H          4.35817        4.76869        4.70665
H          4.95444        6.45488        4.62972
H          5.68361        5.44939        8.53614
H          7.50983        4.19420        7.81992
H          5.75299        1.51058        7.76748
H          7.68324        6.08578        1.34545
H          6.26629        7.11742        1.04548
