81
*****
Si         8.89745       -0.92666        7.69082
C          8.48862       -2.51002        8.72283
C          9.13070       -2.76301        9.95034
C          8.84945       -3.92134       10.67894
C          7.92363       -4.84320       10.19792
C          7.27435       -4.60691        8.98981
C          7.54984       -3.44947        8.25839
C         10.81762       -1.02203        7.39530
C         11.55377       -2.20232        7.60238
C         12.92859       -2.23839        7.35386
C         13.58658       -1.10754        6.87771
C         12.87029        0.06136        6.63938
C         11.49666        0.10408        6.88747
C          8.48191        0.70640        8.89775
C          9.75392        1.12208        9.68203
C          8.03857        1.90301        8.02995
C          7.39785        0.37185        9.94750
N          8.07102       -0.98271        6.14167
C          6.73236       -0.78078        5.84856
C          5.61422       -0.43199        6.62842
C          4.36933       -0.26814        6.01286
C          4.21962       -0.46038        4.64877
C          5.31332       -0.84551        3.87395
C          6.58072       -1.02546        4.47186
C          7.83525       -1.48051        3.96587
C          8.14220       -1.97297        2.58055
C          7.88514       -3.48897        2.35135
N          8.70275       -4.37610        3.18245
C          8.19555       -4.85749        4.46938
C          6.69050       -5.02358        4.56212
C          5.86286       -4.56917        3.42853
C          6.43027       -3.86944        2.43970
O          6.13906       -5.51043        5.54860
C          8.73278       -1.39819        5.00982
O         10.54945       -4.00737        1.86323
C         10.05213       -4.47586        2.87907
O         10.74423       -5.13932        3.83908
C         12.17428       -5.35123        3.72622
C         12.93813       -4.02420        3.66417
C         12.56072       -6.07835        5.02335
C         12.50174       -6.25957        2.53664
H          9.81715       -2.08471       10.31601
H          9.32923       -4.09414       11.57614
H          7.71930       -5.69980       10.73598
H          6.58706       -5.28921        8.63326
H          7.05885       -3.28123        7.36640
H         11.07374       -3.05065        7.94140
H         13.45861       -3.10738        7.52408
H         14.60311       -1.13618        6.70196
H         13.35491        0.89806        6.27870
H         10.97162        0.97176        6.69645
H         10.53519        1.36395        8.99209
H         10.06806        0.31242       10.30705
H          9.53599        1.97663       10.28796
H          8.79855        2.12189        7.30925
H          7.88224        2.75782        8.65426
H          7.12751        1.65899        7.52466
H          7.71972       -0.45869       10.54036
H          6.48432        0.12191        9.44961
H          7.23905        1.22075       10.57921
H          5.71215       -0.29812        7.64701
H          3.55119       -0.00047        6.58210
H          3.29830       -0.31848        4.20599
H          5.19650       -0.99962        2.86023
H          9.17475       -1.77709        2.37961
H          7.47617       -1.45359        1.92363
H          8.20181       -3.64189        1.34079
H          8.49651       -4.16018        5.22309
H          8.60577       -5.83750        4.59668
H          4.85503       -4.78919        3.39870
H          5.81663       -3.56295        1.66864
H          9.74026       -1.61395        4.95107
H         12.67960       -3.42391        4.51135
H         12.67768       -3.50441        2.76590
H         13.99046       -4.21770        3.67193
H         12.33670       -5.45369        5.86271
H         13.60802       -6.29724        5.01110
H         12.00657       -6.99049        5.09960
H         12.23692       -5.76406        1.62602
H         11.94778       -7.17112        2.62082
H         13.54923       -6.47788        2.53232
