76
*****
Si        10.09174       -4.20771        4.98873
C         10.67568       -2.94032        6.31937
C         10.72306       -3.24867        7.82160
C         11.94251       -4.08294        8.21269
C         10.76470       -1.93148        8.61223
C          8.93793       -5.76821        5.75702
C          7.57085       -5.19233        6.20591
C          8.72222       -6.89571        4.72054
C          9.58923       -6.43126        6.99346
C         11.80337       -5.02538        4.00933
C         12.43899       -6.14590        4.84725
C         11.37041       -5.57729        2.63140
C         12.85657       -3.91800        3.78908
N          9.24790       -3.30092        3.70669
C          9.58363       -2.04708        3.20674
C         10.60262       -1.11940        3.50966
C         10.66841        0.08771        2.80606
C          9.74575        0.38529        1.81605
C          8.73524       -0.52471        1.50643
C          8.64654       -1.75237        2.20046
C          7.75281       -2.85739        2.09841
C          6.60151       -3.01348        1.15102
C          6.94441       -3.88147       -0.07928
N          5.69463       -4.18770       -0.82429
C          5.23982       -3.18269       -1.81199
C          6.33155       -2.62941       -2.69115
C          7.71867       -2.69656       -2.19020
C          7.95970       -3.24882       -0.99576
O          6.10843       -2.07915       -3.76613
C          8.15084       -3.77937        3.04390
O          4.00081       -5.86505       -1.67065
S          5.34783       -5.82930       -1.12778
C          6.58062       -6.34755       -2.43453
F          7.86331       -6.25885       -1.97946
F          6.39134       -7.62920       -2.84947
F          6.50438       -5.55060       -3.53736
O          5.62452       -6.52874        0.11640
H         10.03314       -2.09103        6.21566
H         11.71794       -2.86320        6.08991
H          9.84508       -3.81503        8.05242
H         12.83494       -3.53598        7.99067
H         11.93940       -4.99962        7.66080
H         11.90688       -4.29728        9.26040
H         11.65273       -1.39116        8.35857
H         10.76419       -2.14471        9.66077
H          9.90616       -1.34150        8.36783
H          7.09007       -4.72414        5.37251
H          7.72495       -4.47041        6.98050
H          6.95372       -5.98485        6.57463
H          8.27109       -6.48891        3.83970
H          8.08096       -7.64455        5.13639
H          9.66537       -7.33370        4.46849
H          9.76125       -5.69057        7.74624
H         10.52070       -6.87551        6.71076
H          8.93630       -7.18637        7.37867
H         11.72032       -6.92202        5.00866
H         12.75503       -5.75076        5.79006
H         13.28416       -6.54509        4.32646
H         10.63964       -6.34667        2.76896
H         12.22230       -5.98092        2.12516
H         10.94968       -4.78621        2.04652
H         13.16568       -3.52642        4.73566
H         12.43063       -3.13273        3.20015
H         13.70325       -4.32744        3.27879
H         11.29484       -1.33008        4.24551
H         11.41421        0.76584        3.02728
H          9.80636        1.28115        1.30734
H          8.05001       -0.30073        0.76798
H          6.30561       -2.04288        0.81149
H          5.81542       -3.50831        1.68215
H          7.39547       -4.78150        0.28321
H          4.79533       -2.36823       -1.27909
H          4.55248       -3.68418       -2.46082
H          8.49543       -2.32086       -2.75635
H          8.93870       -3.24078       -0.66939
H          7.69333       -4.68689        3.22309
