79
*****
Si         7.42012        1.82373        3.40788
C          7.60001        0.64838        4.95824
C          6.46200       -0.01969        5.45325
C          6.56068       -0.89690        6.53550
C          7.79586       -1.13622        7.12991
C          8.93546       -0.50538        6.63814
C          8.84316        0.37503        5.55682
C          9.09015        2.82036        3.37884
C          9.53506        3.53271        4.50866
C         10.73610        4.24491        4.47605
C         11.50734        4.26372        3.31728
C         11.07933        3.57123        2.18787
C          9.88015        2.85511        2.21407
C          5.92792        3.18447        3.76675
C          5.78019        3.42334        5.29464
C          6.26340        4.55605        3.13459
C          4.57029        2.66341        3.24927
N          7.33428        0.81363        1.97214
C          6.84150        1.08389        0.70577
C          6.24865        2.21430        0.11412
C          5.82045        2.15333       -1.21660
C          5.99058        1.00128       -1.96751
C          6.61201       -0.11221       -1.40438
C          7.05134       -0.07710       -0.06254
C          7.74780       -1.02194        0.74608
C          8.24523       -2.37537        0.33745
C          7.17185       -3.48049        0.42099
N          7.67819       -4.70558       -0.27590
C          8.57668       -5.54846        0.55831
C          8.00372       -5.88593        1.91170
C          7.09312       -4.89751        2.52765
C          6.76173       -3.79847        1.83848
O          8.34376       -6.87578        2.55525
C          7.91627       -0.43497        1.98077
O          5.38673       -5.82413       -0.29505
S          6.52246       -5.59386       -1.16062
C          6.04700       -4.44499       -2.43025
C          6.99421       -4.06554       -3.38686
C          6.63333       -3.16539       -4.38868
C          5.33481       -2.65387       -4.43219
C          4.39173       -3.04220       -3.47802
C          4.74345       -3.94398       -2.47374
O          7.20008       -6.68776       -1.82174
H          5.54394        0.14143        5.01027
H          5.71604       -1.36846        6.89500
H          7.86707       -1.77984        7.93346
H          9.85264       -0.68883        7.07422
H          9.69575        0.82925        5.19378
H          8.96748        3.52863        5.37056
H         11.05265        4.75860        5.31327
H         12.39478        4.79004        3.29546
H         11.65003        3.58699        1.32818
H          9.57030        2.34653        1.37125
H          6.70577        3.78652        5.69000
H          5.52322        2.50309        5.77631
H          5.00983        4.14493        5.46999
H          7.20658        4.89877        3.50588
H          5.50148        5.26249        3.39014
H          6.31418        4.45550        2.07054
H          4.35757        1.71558        3.69789
H          4.61243        2.55323        2.18579
H          3.79972        3.36021        3.50539
H          6.13031        3.08316        0.65827
H          5.37158        2.97804       -1.64485
H          5.65724        0.96762       -2.94362
H          6.75143       -0.96444       -1.96943
H          9.05821       -2.64458        0.97893
H          8.54175       -2.30361       -0.68814
H          6.28967       -3.11888       -0.06468
H          9.49694       -5.02190        0.70237
H          8.71371       -6.47248        0.03647
H          6.71781       -5.05261        3.47639
H          6.17072       -3.10389        2.32148
H          8.40156       -0.86276        2.78483
H          7.95188       -4.44846       -3.35150
H          7.32565       -2.87733       -5.09772
H          5.07067       -1.98565       -5.17295
H          3.43331       -2.66141       -3.51608
H          4.04811       -4.23806       -1.77014
