77
*****
Si        10.02594       -4.38348        5.11098
C         10.30833       -3.27067        6.71612
C         11.30630       -3.85474        7.72263
C         10.73073       -1.83263        6.37319
C          8.72539       -5.82523        5.59849
C          8.57779       -6.85814        4.47339
C          9.00683       -6.50788        6.93715
C         11.68726       -5.14977        4.44392
C         12.78407       -4.10040        4.20662
C         12.26400       -6.29563        5.28285
N          9.20012       -3.43280        3.88103
C          8.03753       -2.69942        4.04458
C          7.16814       -2.50715        5.13828
C          6.06401       -1.66362        4.98568
C          5.82101       -1.01938        3.78087
C          6.67889       -1.20860        2.69498
C          7.79857       -2.06103        2.81727
C          8.83191       -2.45462        1.91064
C          9.01728       -1.99467        0.49597
C         10.07458       -0.87328        0.37163
N         11.44840       -1.42807        0.50955
C         12.03218       -2.03264       -0.70612
C         11.93076       -1.13419       -1.91282
C         10.77837       -0.20958       -1.97895
C          9.93902       -0.13439       -0.93832
O         12.71735       -1.18421       -2.85474
C          9.64524       -3.33925        2.59089
S         12.50295       -0.68267        1.60229
C         12.94885        0.83002        0.77391
C         12.22835        1.99912        1.03286
C         12.59231        3.18737        0.39623
C         13.67926        3.21831       -0.49422
C         14.08057        4.51366       -1.16094
F         13.00991        5.28882       -1.49192
F         14.86886        5.28409       -0.36309
F         14.77736        4.33130       -2.31657
C         14.41223        2.04094       -0.71663
C         14.05478        0.85061       -0.08025
O         11.76095       -0.32004        2.79010
O         13.70072       -1.49010        1.69575
H          9.34577       -3.25889        7.18330
H         12.28189       -3.88001        7.28388
H         11.00766       -4.84799        7.98561
H         11.32593       -3.24387        8.60090
H         11.69331       -1.84543        5.90610
H         10.77723       -1.25105        7.27014
H         10.01561       -1.40065        5.70469
H          7.79130       -5.31929        5.72656
H          9.50673       -7.37106        4.33599
H          8.30745       -6.36050        3.56556
H          7.81626       -7.56314        4.73408
H          9.93489       -7.03729        6.87938
H          8.21750       -7.19503        7.16002
H          9.06510       -5.76910        7.70897
H         11.38524       -5.56889        3.50689
H         13.08575       -3.68158        5.14390
H         12.40474       -3.32458        3.57487
H         13.62558       -4.56421        3.73584
H         12.57980       -5.91817        6.23295
H         13.10142       -6.72440        4.77316
H         11.51338       -7.04422        5.42807
H          7.34442       -2.98193        6.03746
H          5.42097       -1.51803        5.77962
H          5.00272       -0.39763        3.68677
H          6.49446       -0.72501        1.80215
H          8.08184       -1.62647        0.12951
H          9.36185       -2.83118       -0.07536
H          9.90336       -0.17700        1.16584
H         11.51539       -2.94585       -0.91558
H         13.07178       -2.19922       -0.51533
H         10.62285        0.37117       -2.81774
H          9.12195        0.48755       -1.04133
H         10.45248       -3.84444        2.19320
H         11.43281        1.98435        1.69006
H         12.05826        4.05084        0.58126
H         15.22213        2.05580       -1.35606
H         14.60381       -0.00857       -0.23964
