75
*****
Si         9.79177       -4.35002        4.89830
C          9.79303       -3.04817        6.32634
C         10.92616       -2.89832        7.36015
C         10.90546       -1.46872        7.92588
C         10.82582       -3.87527        8.53013
C          8.70985       -6.05153        5.54524
C          7.20355       -5.68946        5.52067
C          8.96044       -7.24694        4.61018
C          9.09436       -6.43488        6.98248
C         11.74427       -4.87115        4.35374
C         12.43648       -5.63849        5.49875
C         11.83244       -5.74668        3.08571
C         12.51517       -3.55967        4.04949
N          8.87349       -3.76365        3.49559
C          7.92357       -2.75090        3.45735
C          7.31129       -1.95074        4.44400
C          6.40484       -0.95731        4.06002
C          6.09512       -0.75449        2.72500
C          6.66540       -1.56606        1.74457
C          7.56905       -2.59060        2.10533
C          8.21874       -3.61826        1.35812
C          8.07569       -3.90919       -0.10553
C          7.25354       -5.18432       -0.42249
N          5.88500       -5.14945        0.11174
C          4.89473       -4.31358       -0.57607
C          4.98435       -4.38984       -2.09408
C          6.15378       -5.06607       -2.69568
C          7.18374       -5.40912       -1.91220
O          4.15003       -3.86725       -2.82991
C          8.96397       -4.34754        2.26082
O          6.48311       -6.48989        1.88068
C          5.65132       -5.72522        1.37544
C          4.30979       -5.41918        2.08487
F          3.26745       -6.07084        1.49281
F          4.29503       -5.78702        3.39541
F          3.98992       -4.09351        2.05515
H          8.90699       -3.24111        6.89433
H          9.90518       -2.14027        5.77132
H         11.83718       -3.11418        6.84214
H          9.97877       -1.29932        8.43328
H         11.00701       -0.76664        7.12483
H         11.71618       -1.34536        8.61320
H          9.92334       -3.68899        9.07394
H         11.66668       -3.74287        9.17846
H         10.81717       -4.87826        8.15754
H          6.91783       -5.41941        4.52552
H          7.02398       -4.86554        6.17931
H          6.62860       -6.53340        5.84022
H          8.69246       -6.97928        3.60945
H          8.36718       -8.07880        4.92791
H          9.99600       -7.51427        4.64272
H          8.91980       -5.60295        7.63235
H         10.12994       -6.70207        7.01543
H          8.50112       -7.26660        7.30062
H         11.89747       -6.54051        5.70056
H         12.45312       -5.02867        6.37781
H         13.43904       -5.87860        5.21220
H         11.31155       -6.66667        3.25059
H         12.85900       -5.95261        2.86514
H         11.38788       -5.22771        2.26234
H         12.48027       -2.91866        4.90552
H         12.06290       -3.06546        3.21516
H         13.53403       -3.79036        3.81796
H          7.53041       -2.09709        5.44179
H          5.96068       -0.36735        4.78092
H          5.44188       -0.00228        2.45580
H          6.42642       -1.41768        0.75165
H          9.05440       -4.02907       -0.52104
H          7.54225       -3.08551       -0.53203
H          7.76872       -5.98783        0.06109
H          5.04481       -3.29676       -0.27868
H          3.92794       -4.67911       -0.29929
H          6.17568       -5.27101       -3.70689
H          7.99352       -5.86303       -2.36301
H          9.50427       -5.19870        2.04030
