72
*****
Si         9.18164        6.27332        5.20051
C          8.68080        5.23437        6.72882
C          7.32371        5.16461        7.10457
C          6.92034        4.41224        8.21074
C          7.86006        3.71004        8.95855
C          9.20325        3.75443        8.59793
C          9.61183        4.50624        7.49250
C         11.12220        6.19154        5.13824
C         11.77394        5.55380        4.06468
C         13.16880        5.49550        4.00705
C         13.93616        6.06698        5.01765
C         13.31055        6.69449        6.09080
C         11.91610        6.75620        6.15359
C          8.64769        8.26826        5.54011
C          8.68820        8.56879        7.05789
C          9.62567        9.21855        4.81710
C          7.20516        8.51750        5.04271
N          8.54579        5.66317        3.68255
C          8.20648        4.35347        3.38145
C          8.21359        3.15696        4.12772
C          7.78086        1.97292        3.52248
C          7.35652        1.96096        2.20245
C          7.36608        3.13788        1.45252
C          7.80017        4.34897        2.03710
C          7.94749        5.67575        1.51921
C          7.63786        6.08816        0.10543
C          8.07157        7.50995       -0.31581
N          9.55491        7.69148       -0.22061
C         10.31767        7.00989       -1.30227
C          9.79264        7.30271       -2.68971
C          8.38367        7.73955       -2.81855
C          7.61510        7.80713       -1.72322
O         10.46082        7.11282       -3.70349
C          8.42005        6.44651        2.56200
O          9.13388        9.81627        1.12080
S         10.07833        9.29054        0.14802
C         11.74095        9.06019        0.97692
F         11.66791        8.16699        2.00223
F         12.68456        8.58965        0.11310
F         12.22105       10.22526        1.49307
O         10.22730        9.96552       -1.12921
H          6.61722        5.67725        6.55402
H          5.92299        4.37738        8.47361
H          7.56197        3.15806        9.77799
H          9.90077        3.23010        9.14889
H         10.61040        4.52758        7.23280
H         11.21434        5.12431        3.31142
H         13.63154        5.02708        3.21239
H         14.96629        6.02556        4.97140
H         13.87840        7.11559        6.84262
H         11.46250        7.22196        6.95505
H          9.67850        8.40352        7.42789
H          8.00449        7.92269        7.56779
H          8.40963        9.58791        7.22726
H         10.62095        9.03966        5.16685
H          9.35311       10.23307        5.02046
H          9.58094        9.04171        3.76276
H          6.53404        7.85519        5.54852
H          7.15547        8.33922        3.98884
H          6.92764        9.53059        5.24653
H          8.53426        3.15515        5.10864
H          7.77727        1.09562        4.06594
H          7.03293        1.07982        1.77361
H          7.05533        3.12369        0.46852
H          6.57826        6.02031       -0.02696
H          8.20981        5.42657       -0.51107
H          7.60798        8.19511        0.36282
H         10.26787        5.95381       -1.13758
H         11.32036        7.38114       -1.26122
H          7.99771        7.98937       -3.74248
H          6.62977        8.08532       -1.85261
H          8.64355        7.45256        2.50801
