79
*****
Si         9.89085       -4.20266        5.11450
C         10.22750       -3.06630        6.63059
C         10.61584       -3.57272        8.02764
C         12.05009       -4.08950        8.10723
C         10.45545       -2.42845        9.04151
C          9.00950       -6.00799        5.72668
C          7.70083       -5.63787        6.47219
C          8.66783       -6.93125        4.54009
C          9.90808       -6.80941        6.69317
C         11.69696       -4.56516        4.06123
C         12.41041       -5.83381        4.54818
C         11.41076       -4.71882        2.54984
C         12.61750       -3.33966        4.26429
N          8.84830       -3.36975        3.92978
C          8.60025       -2.00799        3.80523
C          9.06865       -0.86192        4.48078
C          8.59075        0.40167        4.11651
C          7.67490        0.54674        3.08826
C          7.22911       -0.57450        2.39034
C          7.69133       -1.86411        2.73920
C          7.46158       -3.15481        2.17674
C          6.64197       -3.48715        0.96411
C          5.15762       -3.84617        1.22351
N          4.95628       -5.06258        2.01985
C          4.80707       -4.96396        3.47027
C          4.10826       -3.71664        3.97494
C          3.85797       -2.62014        3.02005
C          4.35470       -2.70072        1.78081
O          3.77904       -3.57221        5.15114
C          8.23187       -4.03825        2.90353
C          5.23576       -6.31929        1.51163
O          5.45242       -6.30620        0.16898
C          5.78641       -7.57359       -0.44294
C          7.28602       -7.69860       -0.76448
Cl         8.30061       -7.61498        0.70510
Cl         7.59199       -9.26689       -1.58049
Cl         7.79229       -6.38335       -1.87875
O          5.28549       -7.33815        2.18786
H          9.33125       -2.49849        6.76922
H         11.14088       -2.59796        6.32844
H          9.96598       -4.39358        8.24849
H         12.72926       -3.29145        7.89099
H         12.18578       -4.87623        7.39481
H         12.24050       -4.46302        9.09167
H         11.12030       -1.62990        8.78619
H         10.68792       -2.78617       10.02278
H          9.44649       -2.07280        9.02128
H          7.06306       -5.08084        5.81807
H          7.93535       -5.04521        7.33164
H          7.20122       -6.53219        6.78118
H          8.04362       -6.40600        3.84772
H          8.15223       -7.79740        4.89905
H          9.57051       -7.23108        4.05002
H         10.16543       -6.19668        7.53176
H         10.79992       -7.11032        6.18426
H          9.38164       -7.67664        7.03329
H         11.77060       -6.67961        4.40617
H         12.64495       -5.73451        5.58742
H         13.31306       -5.97176        3.99042
H         10.77386       -5.56392        2.39155
H         12.33208       -4.86333        2.02526
H         10.92826       -3.83556        2.18659
H         12.82576       -3.21886        5.30685
H         12.12999       -2.46212        3.89394
H         13.53382       -3.48989        3.73260
H          9.76089       -0.95492        5.24051
H          8.92557        1.23721        4.62129
H          7.32265        1.48413        2.83879
H          6.55782       -0.46255        1.61455
H          7.10059       -4.32298        0.47835
H          6.62341       -2.59375        0.37555
H          4.77994       -4.06101        0.24570
H          5.78475       -4.99162        3.90417
H          4.18272       -5.78453        3.75618
H          3.30411       -1.79764        3.30598
H          4.17096       -1.90555        1.14917
H          8.32925       -5.04641        2.70561
H          5.23157       -7.67173       -1.35256
H          5.53928       -8.34571        0.25539
