89
*****
Si        10.08987       -3.70797        5.19509
C         11.82354       -4.39888        4.86297
C         12.93248       -3.63544        4.11383
C         13.33665       -2.31758        4.76406
C         14.16879       -4.53873        3.99465
C          9.98637       -2.69379        6.82844
C         10.61294       -1.29236        6.92985
C          9.95908       -0.25682        6.01495
C         10.52504       -0.80303        8.38174
C          8.93476       -5.30694        5.62262
C          9.61012       -6.51195        6.30121
C         10.00138       -6.23973        7.75406
C          8.65532       -7.71058        6.25441
N          9.24888       -2.95150        3.86346
C          7.96572       -2.43005        3.87819
C          6.98678       -2.30851        4.88603
C          5.76550       -1.70150        4.57861
C          5.50712       -1.22900        3.30037
C          6.46509       -1.36486        2.29376
C          7.70705       -1.97781        2.57355
C          8.84592       -2.28645        1.76343
C          8.99377       -2.00322        0.29600
C          9.87083       -2.99852       -0.49870
N          9.32826       -4.38200       -0.43503
C          8.16816       -4.65339       -1.31211
C          8.44360       -4.26597       -2.74595
C          9.36216       -3.12813       -2.98261
C          9.98390       -2.55961       -1.94084
O          7.91486       -4.81970       -3.70583
C          9.76627       -2.88382        2.60022
S         10.40310       -5.65726       -0.14467
C         11.25928       -5.84430       -1.70047
C         12.43794       -5.12557       -1.92793
C         13.12355       -5.26371       -3.14397
C         14.38935       -4.47495       -3.39141
F         14.27110       -3.17557       -2.99935
F         15.45545       -4.97872       -2.71544
F         14.75258       -4.43663       -4.70223
C         12.62499       -6.16000       -4.10544
C         11.45782       -6.91162       -3.87049
C         10.95662       -7.87374       -4.92577
F         11.90223       -8.78948       -5.27389
F          9.86574       -8.58833       -4.54044
F         10.60970       -7.23852       -6.07774
C         10.77989       -6.74978       -2.65329
O         11.39105       -5.22888        0.82227
O          9.63575       -6.86562        0.06291
H         11.67316       -5.30381        4.31215
H         12.22608       -4.41601        5.85421
H         12.53011       -3.38398        3.15479
H         13.74857       -2.50939        5.73279
H         12.47628       -1.68879        4.86046
H         14.06884       -1.82935        4.15543
H         14.53965       -4.76652        4.97213
H         14.92725       -4.03313        3.43428
H         13.90083       -5.44590        3.49449
H         10.44914       -3.28993        7.58695
H          8.93928       -2.49110        6.91458
H         11.62909       -1.38954        6.60908
H          8.93593       -0.12528        6.29911
H         10.00695       -0.59575        5.00117
H         10.47671        0.67538        6.10418
H          9.49752       -0.71770        8.66778
H         10.99908        0.15258        8.46537
H         11.01724       -1.50278        9.02438
H          8.51307       -5.65269        4.70200
H          8.23008       -4.94845        6.34360
H         10.51363       -6.71290        5.76437
H          9.12197       -6.03327        8.32757
H         10.65944       -5.39697        7.79430
H         10.49653       -7.09843        8.15698
H          7.76405       -7.47807        6.79890
H          9.13028       -8.56233        6.69468
H          8.40526       -7.92788        5.23698
H          7.16952       -2.66296        5.83787
H          5.04660       -1.60366        5.31253
H          4.60370       -0.77546        3.09263
H          6.26556       -1.01672        1.34297
H          9.42582       -1.02988        0.19183
H          8.01030       -2.09053       -0.11639
H         10.84161       -3.00288       -0.04873
H          7.32803       -4.09348       -0.95772
H          7.97027       -5.70457       -1.28467
H          9.52150       -2.77703       -3.93988
H         10.59348       -1.75115       -2.14044
H         10.69797       -3.22548        2.31698
H         12.80370       -4.49250       -1.19960
H         13.12470       -6.26929       -5.00175
H          9.92745       -7.29862       -2.46051
