73
*****
C          1.39855       -3.07487        7.28265
Si         1.91725       -1.32259        7.73562
C          0.38113       -0.19083        7.58023
C         -0.90089       -0.66530        7.91312
C         -2.01964        0.16340        7.79692
C         -1.87640        1.47562        7.35333
C         -0.61362        1.96460        7.02943
C          0.50884        1.14154        7.14344
C          2.39323       -1.17937        9.56705
C          2.53499       -2.31838       10.37989
C          2.91024       -2.19623       11.72102
C          3.15388       -0.93975       12.27012
C          3.02007        0.19849       11.48090
C          2.63963        0.08233       10.14253
N          3.19196       -0.82132        6.65752
C          3.09084       -0.63613        5.29093
C          2.02843       -0.80992        4.38034
C          2.24144       -0.50240        3.03378
C          3.47160       -0.02999        2.59575
C          4.52279        0.14903        3.49895
C          4.33978       -0.15811        4.86485
C          5.19052       -0.07434        6.01209
C          6.59478        0.44503        6.06796
C          6.65816        1.92426        6.51362
N          6.28143        2.06261        7.94620
C          7.34404        1.77778        8.93176
C          8.62413        2.51874        8.63674
C          8.93005        2.81476        7.21976
C          8.02977        2.50870        6.27674
O          9.43759        2.82573        9.50430
C          4.46048       -0.54016        7.08730
S          5.10677        3.20694        8.35639
C          5.97717        4.75277        8.19001
C          5.91080        5.45909        6.98600
C          6.59107        6.67215        6.86144
C          7.33308        7.19050        7.93674
C          8.05209        8.51231        7.79701
F          8.61317        8.67696        6.56617
F          7.22153        9.57521        7.97551
F          9.06669        8.67191        8.69103
C          7.35897        6.48419        9.15050
C          6.67802        5.27226        9.28190
O          4.06720        3.18613        7.34980
O          4.78089        3.04711        9.75747
H          0.61551       -3.39559        7.93755
H          2.23735       -3.73185        7.38111
H          1.04799       -3.09304        6.27187
H         -1.01601       -1.63517        8.24646
H         -2.95507       -0.19804        8.04056
H         -2.70482        2.08464        7.26481
H         -0.50679        2.93814        6.70413
H          1.44141        1.51373        6.90510
H          2.36012       -3.25439        9.98199
H          3.00710       -3.04052       12.30652
H          3.43298       -0.85306       13.25988
H          3.20235        1.13018       11.88556
H          2.53756        0.93280        9.56693
H          1.11145       -1.15742        4.70193
H          1.47384       -0.62814        2.35555
H          3.61036        0.19023        1.59711
H          5.43277        0.50568        3.16763
H          7.03162        0.36019        5.09489
H          7.12954       -0.13657        6.78953
H          5.95446        2.47011        5.92054
H          7.54664        0.72718        8.92294
H          6.99404        2.10483        9.88854
H          9.82796        3.25259        6.96076
H          8.29869        2.68918        5.29687
H          4.81148       -0.65650        8.05078
H          5.36295        5.08683        6.19461
H          6.54863        7.19298        5.97152
H          7.88592        6.86430        9.95229
H          6.69217        4.76337       10.17959
