85
*****
C         -0.38004        4.47592        8.17093
Si         0.23964        2.72553        8.46781
C         -0.31887        2.08037       10.12734
C         -0.69829        1.52998        6.91631
C         -0.43436        0.04307        7.24010
C         -2.23187        1.89529        6.82110
C         -2.87653        1.41958        5.50718
C         -3.08744        1.35362        7.97423
C          0.05782        1.90149        5.60872
N          1.95967        2.57640        8.20621
C          2.79780        1.56322        8.63150
C          2.58615        0.39335        9.38896
C          3.67080       -0.44778        9.65495
C          4.93946       -0.14634        9.18092
C          5.15251        1.00808        8.42483
C          4.07689        1.87879        8.14261
C          3.98013        3.10814        7.41895
C          5.08565        3.84438        6.72363
C          4.85516        4.03382        5.20296
N          5.83695        4.95752        4.62594
C          7.13605        4.44430        4.19766
C          7.07885        3.08926        3.51561
C          5.84635        2.28823        3.65329
C          4.86272        2.73111        4.44428
O          8.04623        2.60468        2.93115
C          2.66321        3.51582        7.50084
C          5.65127        6.30545        4.90156
O          6.77146        7.04848        4.68894
C          6.70297        8.40789        5.16238
C          8.04563        8.83268        5.77418
C          7.98260       10.27469        6.27169
C          7.75714       11.43085        5.53969
C          7.71005       12.64577        6.22669
C          7.88970       12.69244        7.61908
C          8.12673       11.52485        8.35026
C          8.17442       10.31896        7.67061
C          8.41300        8.97710        8.15585
C          8.37093        8.08299        7.06558
C          8.63135        6.73206        7.23767
C          8.89685        6.26560        8.52579
C          8.91185        7.14825        9.61686
C          8.67536        8.51456        9.43551
O          4.60151        6.76054        5.33997
H         -1.43531        4.51477        8.34356
H         -0.17320        4.76095        7.16055
H          0.11576        5.14806        8.83975
H         -1.37787        2.20255       10.21948
H          0.17219        2.62605       10.90580
H         -0.07118        1.04259       10.20830
H         -0.95044       -0.22331        8.13877
H          0.61600       -0.11210        7.37263
H         -0.78579       -0.56549        6.43323
H         -2.22541        2.96408        6.87149
H         -2.87378        0.35006        5.47531
H         -2.31974        1.80256        4.67759
H         -3.88430        1.77537        5.45507
H         -3.10239        0.28442        7.93556
H         -4.08581        1.72778        7.88390
H         -2.67066        1.67099        8.90722
H          1.09092        1.64114        5.70786
H         -0.02963        2.95328        5.43270
H         -0.36769        1.36560        4.78613
H          1.64457        0.16122        9.74191
H          3.52580       -1.30464       10.21153
H          5.72890       -0.77795        9.38800
H          6.09752        1.22543        8.07163
H          5.99404        3.29584        6.86086
H          5.12689        4.82246        7.15555
H          3.87755        4.45703        5.10259
H          7.76350        4.35902        5.06018
H          7.51505        5.13557        3.47418
H          5.74476        1.39604        3.14466
H          4.03306        2.12557        4.54432
H          2.27460        4.38288        7.09806
H          5.93748        8.48355        5.90616
H          6.48003        9.05099        4.33678
H          8.75561        8.65358        4.99396
H          7.62786       11.39441        4.51647
H          7.54118       13.52004        5.70502
H          7.84615       13.60005        8.10834
H          8.26300       11.56054        9.37260
H          8.62889        6.08682        6.43225
H          9.08395        5.26212        8.67756
H          9.09964        6.78466       10.56425
H          8.69578        9.16418       10.23713
