63
*****
C          8.08327        5.33680       10.22910
Si         6.48461        4.34840       10.19344
C          6.75576        2.75605       11.14889
C          4.98949        5.45662       11.31088
C          5.57603        5.70530       12.71933
C          4.59861        6.78107       10.54371
C          3.24401        7.35516       10.99668
C          5.62741        7.91376       10.65711
C          3.77781        4.48983       11.42951
N          5.84655        4.16936        8.58154
C          5.11843        3.11766        8.05871
C          4.60093        1.93195        8.61775
C          3.90055        1.04224        7.79752
C          3.70963        1.31451        6.45104
C          4.21132        2.49233        5.89394
C          4.92056        3.41244        6.69816
C          5.52375        4.68173        6.42887
C          5.55620        5.41214        5.11981
C          6.97348        5.79761        4.62710
N          7.88325        4.65169        4.49132
C          7.65826        3.73073        3.37076
C          7.35185        4.44849        2.06186
C          7.07239        5.90134        2.10541
C          6.89194        6.49547        3.29190
O          7.27900        3.85653        0.98732
C          6.05328        5.12595        7.62297
O          8.98599        5.22112        6.42772
C          8.78927        4.38670        5.53457
C          9.56402        3.04717        5.51215
F          8.74996        1.97629        5.28771
F         10.50461        3.02294        4.52489
F         10.22269        2.78769        6.67515
H          8.43079        5.41666       11.23793
H          7.90643        6.31544        9.83425
H          8.82253        4.84089        9.63541
H          7.14708        2.98401       12.11832
H          7.45025        2.13689       10.62047
H          5.82454        2.23936       11.25262
H          6.41102        6.37033       12.64564
H          5.89655        4.77578       13.14144
H          4.82652        6.14192       13.34583
H          4.55330        6.45577        9.52536
H          3.31424        7.67298       12.01597
H          2.48991        6.60110       10.90935
H          2.98633        8.19043       10.37958
H          5.68071        8.24682       11.67256
H          5.33162        8.72840       10.02961
H          6.58735        7.55593       10.34826
H          4.07684        3.60574       11.95284
H          3.43474        4.22618       10.45089
H          2.98791        4.97216       11.96645
H          4.73713        1.72318        9.61920
H          3.52045        0.17105        8.19949
H          3.19493        0.64413        5.85884
H          4.06373        2.69141        4.89214
H          4.98452        6.31044        5.22537
H          5.15527        4.74057        4.38963
H          7.37298        6.44425        5.38020
H          6.83213        3.09514        3.61249
H          8.56133        3.17511        3.22709
H          7.01731        6.44939        1.23269
H          6.68146        7.50578        3.29308
H          6.52746        6.03070        7.76995
