67
*****
C         13.66782        7.27121        0.17186
C         13.97106        6.43546       -1.06516
Si        12.42959        5.99218       -2.13052
C         11.57280        7.58758       -2.68432
C         12.48182        8.65641       -3.28108
C         13.12304        5.14460       -3.72599
C         13.95990        3.89117       -3.52148
N         11.43763        4.84120       -1.27043
C         10.06341        4.81951       -1.11677
C          9.02452        5.65639       -1.57134
C          7.70184        5.34863       -1.23595
C          7.40174        4.23284       -0.46994
C          8.42406        3.39673       -0.02024
C          9.77027        3.68526       -0.33763
C         11.00196        3.02888       -0.03062
C         11.19156        1.76166        0.74966
C         11.45885        1.93890        2.26676
N         12.66212        2.71424        2.59106
C         12.56285        4.14753        2.85702
C         11.27007        4.61602        3.49439
C         10.15051        3.66088        3.59031
C         10.26003        2.45802        3.01651
O         11.10997        5.76632        3.89985
C         12.00134        3.76471       -0.63426
O         14.94094        2.91768        2.34268
C         13.92963        2.22958        2.30120
O         13.91050        0.91757        1.95276
C         15.11937        0.23623        1.52969
C         16.15822        0.18340        2.65437
C         14.66353       -1.19682        1.21447
C         15.68545        0.86081        0.24914
H         14.57694        7.46895        0.70035
H         12.99473        6.73543        0.80808
H         13.21881        8.19629       -0.12398
H         14.43052        5.52298       -0.74705
H         14.60721        7.03162       -1.68549
H         11.08428        8.01086       -1.83163
H         10.90585        7.30135       -3.47055
H         13.17812        8.98730       -2.53907
H         11.89002        9.48510       -3.60962
H         13.01524        8.24687       -4.11334
H         13.73151        5.86166       -4.23637
H         12.26109        4.82270       -4.27219
H         14.84678        4.13941       -2.97675
H         14.22852        3.48245       -4.47316
H         13.39316        3.16986       -2.97066
H          9.23730        6.48719       -2.14538
H          6.93845        5.96100       -1.56345
H          6.42031        4.02030       -0.23190
H          8.19620        2.56468        0.54616
H         12.02398        1.23776        0.32834
H         10.26398        1.23326        0.67705
H         11.65365        0.94348        2.60747
H         12.67401        4.66201        1.92544
H         13.33111        4.36296        3.56996
H          9.28898        3.91888        4.09650
H          9.44751        1.82656        3.09464
H         13.00862        3.54140       -0.61082
H         15.71959       -0.25845        3.52459
H         16.48539        1.17579        2.88461
H         16.99526       -0.40405        2.33945
H         14.26525       -1.64723        2.09958
H         15.49890       -1.76877        0.86815
H         13.90901       -1.17244        0.45618
H         16.00782        1.86066        0.45231
H         14.92686        0.87702       -0.50531
H         16.51675        0.28068       -0.09334
