73
*****
C         11.99124        3.72927       -3.26050
Si        11.02000        5.36111       -3.18938
C         11.57453        6.26966       -1.62304
C         11.69672        6.54743       -4.82105
C         11.13707        5.99483       -6.15085
C         11.38874        8.07864       -4.56917
C         12.01502        8.99582       -5.63514
C          9.90249        8.44389       -4.46922
C         13.24455        6.32642       -4.85087
N          9.31845        4.98783       -3.11354
C          8.70180        4.24645       -2.11545
C          9.17881        3.64915       -0.92913
C          8.28390        2.95329       -0.11097
C          6.94337        2.84635       -0.45137
C          6.46728        3.43120       -1.62628
C          7.34875        4.13542       -2.47566
C          7.17405        4.80857       -3.72167
C          5.91525        4.94231       -4.52516
C          5.67081        3.81426       -5.56258
N          6.76070        3.61901       -6.52737
C          7.79361        2.61420       -6.27691
C          7.34355        1.38142       -5.51828
C          6.00484        1.38963       -4.89929
C          5.27339        2.50876       -4.92470
O          8.06278        0.39443       -5.37062
C          8.40122        5.34535       -4.05785
O          8.07123        4.56188       -8.16708
C          7.05406        4.57732       -7.48650
O          6.09125        5.53072       -7.57140
C          6.22382        6.65060       -8.48412
C          6.25118        6.18335       -9.94299
C          4.95238        7.48343       -8.25916
C          7.44044        7.51351       -8.13110
H         13.03928        3.93975       -3.30750
H         11.69888        3.17778       -4.12957
H         11.78243        3.15146       -2.38446
H         12.61966        6.48925       -1.68920
H         11.39341        5.65113       -0.76892
H         11.02384        7.18192       -1.52600
H         10.07541        6.12629       -6.17306
H         11.36923        4.95333       -6.23014
H         11.57897        6.52214       -6.97034
H         11.83643        8.24176       -3.61112
H         11.55005        8.81239       -6.58121
H         13.06331        8.79412       -5.70786
H         11.86700       10.01846       -5.35728
H          9.43244        8.28846       -5.41780
H          9.80593        9.47159       -4.18745
H          9.43221        7.82642       -3.73269
H         13.45377        5.29099       -5.02120
H         13.66573        6.62598       -3.91398
H         13.67322        6.91106       -5.63785
H         10.17463        3.72501       -0.66912
H          8.62516        2.51325        0.75790
H          6.29558        2.33255        0.16620
H          5.46901        3.34872       -1.87462
H          5.95575        5.87303       -5.05148
H          5.10825        4.88203       -3.82514
H          4.83834        4.17137       -6.13211
H          8.57486        3.07975       -5.71315
H          8.10103        2.26642       -7.24099
H          5.63516        0.53748       -4.44962
H          4.35040        2.47491       -4.46431
H          8.59358        5.92429       -4.89023
H          5.38577        5.58661      -10.14267
H          7.13278        5.60184      -10.11479
H          6.25409        7.03528      -10.59037
H          4.09263        6.89437       -8.50153
H          4.97862        8.35065       -8.88536
H          4.90046        7.78524       -7.23392
H          8.33549        6.94711       -8.28267
H          7.37848        7.81519       -7.10638
H          7.45664        8.38061       -8.75782
