70
*****
Si        10.14815       -4.10827        5.26027
C         10.65419       -3.00031        6.81267
C         11.67843       -3.65317        7.74824
C         11.16558       -1.60838        6.40825
C          8.77014       -5.41866        5.88258
C          8.44279       -6.45377        4.79817
C          9.09641       -6.10099        7.21120
C         11.67833       -5.02744        4.48187
C         12.83643       -4.08148        4.12711
C         12.22322       -6.20221        5.30217
N          9.31128       -3.11233        4.07309
C          8.22979       -2.28026        4.30693
C          7.49074       -1.96655        5.46640
C          6.43680       -1.05293        5.37153
C          6.11388       -0.46088        4.15874
C          6.83827       -0.77457        3.00691
C          7.90699       -1.69554        3.07197
C          8.80858       -2.21543        2.09231
C          8.85141       -1.88312        0.63121
C          9.95218       -0.85917        0.26637
N         10.10282       -0.71843       -1.18566
C          9.20110        0.17736       -1.91235
C          8.85933        1.46031       -1.17509
C          9.23671        1.57266        0.24750
C          9.71792        0.49765        0.88171
O          8.23002        2.37545       -1.70260
C          9.64255       -3.10164        2.74532
C         10.83791       -1.68647       -1.84795
O         10.76888       -1.56128       -3.19893
C         11.54731       -2.49863       -3.97715
C         12.85958       -1.89019       -4.50328
Cl        13.96259       -1.41333       -3.17980
Cl        13.69957       -3.09727       -5.53378
Cl        12.51577       -0.44320       -5.50881
O         11.47364       -2.56873       -1.28636
H          9.73699       -2.89958        7.35443
H         12.60946       -3.76775        7.23349
H         11.31996       -4.61352        8.05503
H         11.82071       -3.03387        8.60913
H         12.08279       -1.70892        5.86648
H         11.33277       -1.02073        7.28666
H         10.43717       -1.12653        5.79007
H          7.89772       -4.82848        6.07088
H          9.30899       -7.05035        4.60147
H          8.14576       -5.94991        3.90219
H          7.64535       -7.08286        5.13470
H          9.96640       -6.71274        7.09379
H          8.26980       -6.71036        7.51165
H          9.28140       -5.35742        7.95805
H         11.26589       -5.43723        3.58361
H         13.24956       -3.67115        5.02481
H         12.47247       -3.28892        3.50721
H         13.59357       -4.62576        3.60233
H         12.64688       -5.83480        6.21344
H         12.97662       -6.71173        4.73854
H         11.42649       -6.88010        5.52710
H          7.72437       -2.40473        6.37108
H          5.89152       -0.81557        6.21494
H          5.33496        0.21420        4.10785
H          6.59244       -0.33297        2.10714
H          7.90293       -1.47701        0.34773
H          9.07619       -2.78878        0.10760
H         10.85777       -1.25469        0.67669
H          8.29030       -0.34990       -2.10555
H          9.71428        0.46696       -2.80548
H          9.13061        2.46961        0.74674
H          9.94959        0.60650        1.88146
H         10.38983       -3.66158        2.30593
H         10.96053       -2.82038       -4.81205
H         11.80477       -3.31522       -3.33545
