83
*****
Si        10.10186       -4.19715        5.11787
C          8.79295       -4.99731        6.28804
C          8.86988       -6.44952        6.77682
C          9.85794       -6.62949        7.92898
C          7.48137       -6.90224        7.25513
C         11.26823       -5.58522        4.07924
C         10.37198       -6.29658        3.03402
C         12.47175       -4.91707        3.37466
C         11.85357       -6.67604        5.00647
C         11.38705       -2.94061        6.27217
C         12.46675       -3.76465        6.99107
C         12.04897       -1.90883        5.33020
C         10.56129       -2.18066        7.33250
N          9.24484       -3.07385        4.03307
C          8.16565       -2.25950        4.35745
C          7.44749       -2.02511        5.54941
C          6.37471       -1.12803        5.54420
C          6.00703       -0.46732        4.38344
C          6.70962       -0.69186        3.19961
C          7.79886       -1.59184        3.17580
C          8.67809       -2.02181        2.13879
C          8.64459       -1.62094        0.69439
C          8.09906       -2.73157       -0.23140
N          6.69142       -3.06313        0.10326
C          5.65865       -2.16234       -0.44530
C          5.82536       -1.90443       -1.92221
C          7.19343       -1.98189       -2.48101
C          8.20999       -2.33340       -1.68306
O          4.89646       -1.56768       -2.65242
C          9.57057       -2.90223        2.71507
O          4.93469       -4.76620        0.82320
S          6.28759       -4.69270        0.31418
C          6.25671       -5.31650       -1.35467
C          7.40530       -5.90128       -1.89763
C          7.37349       -6.39414       -3.20208
C          6.19776       -6.31480       -3.95046
C          5.04648       -5.75424       -3.39505
C          5.06887       -5.26210       -2.09053
O          7.37726       -5.35672        0.99831
H          7.85467       -4.90856        5.78143
H          8.97010       -4.46135        7.19703
H          9.20947       -7.04005        5.95168
H          9.53809       -6.04676        8.76744
H         10.82963       -6.30565        7.61942
H          9.89779       -7.66206        8.20666
H          7.17177       -6.29329        8.07867
H          7.52704       -7.92526        7.56535
H          6.77855       -6.80338        6.45440
H          9.94869       -5.56928        2.37316
H          9.58673       -6.82206        3.53616
H         10.96174       -6.98955        2.47111
H         12.11929       -4.14987        2.71734
H         13.00759       -5.65163        2.81058
H         13.12113       -4.48740        4.10855
H         11.05707       -7.17189        5.52089
H         12.51105       -6.22332        5.71897
H         12.39752       -7.38755        4.42100
H         13.04843       -4.29801        6.26852
H         12.00018       -4.46014        7.65703
H         13.10341       -3.10955        7.54822
H         12.62560       -2.42128        4.58873
H         12.68868       -1.26620        5.89826
H         11.29074       -1.32488        4.85165
H         10.09637       -2.88259        7.99284
H          9.80864       -1.59570        6.84645
H         11.20657       -1.53701        7.89306
H          7.71233       -2.51270        6.41954
H          5.85026       -0.95602        6.41620
H          5.21274        0.19147        4.39463
H          6.43258       -0.19824        2.33670
H          9.63986       -1.37852        0.38526
H          7.98364       -0.78360        0.61130
H          8.69855       -3.60372       -0.07371
H          5.71197       -1.22734        0.07222
H          4.71143       -2.64098       -0.30899
H          7.36257       -1.76709       -3.47613
H          9.15474       -2.33188       -2.09835
H         10.35844       -3.35873        2.22938
H          8.26955       -5.96761       -1.33755
H          8.21956       -6.81767       -3.61417
H          6.17973       -6.67211       -4.91846
H          4.17801       -5.70396       -3.95027
H          4.21544       -4.86083       -1.67141
