68
*****
C         12.53938       -0.81355        5.36381
C         12.08805       -2.26723        5.31919
Si        12.40055       -3.15685        3.65020
C         14.27104       -3.27595        3.34216
C         15.07032       -4.00160        4.41635
C         11.67121       -4.92018        3.84245
C         11.75287       -5.78362        2.58996
N         11.56147       -2.32204        2.37047
C         10.20107       -2.10111        2.27518
C          9.12229       -2.37652        3.14002
C          7.82835       -2.03677        2.73495
C          7.60098       -1.44215        1.50170
C          8.66800       -1.17207        0.64145
C          9.98774       -1.49852        1.02510
C         11.25886       -1.36186        0.38056
C         11.52138       -0.82906       -0.99655
C         12.31826       -1.79932       -1.89915
N         11.64647       -3.11977       -1.99555
C         10.51065       -3.20355       -2.93437
C         10.85695       -2.67578       -4.30565
C         11.88472       -1.61299       -4.39155
C         12.51551       -1.21723       -3.27800
O         10.28717       -3.04349       -5.32988
C         12.20693       -1.83414        1.26736
S         12.57193       -4.51012       -1.73792
C         13.51841       -4.64732       -3.24281
C         14.79545       -4.08344       -3.31101
C         15.53811       -4.20103       -4.48747
C         15.01639       -4.88745       -5.59742
C         15.83670       -5.02392       -6.85921
F         16.52566       -3.88775       -7.16153
F         16.76703       -6.01270       -6.76747
F         15.09008       -5.30923       -7.96146
C         13.74549       -5.47737       -5.49865
C         12.99943       -5.36539       -4.32350
O         13.51287       -4.25208       -0.66781
O         11.68428       -5.65163       -1.68701
H         12.32539       -0.40310        6.32851
H         12.01781       -0.25500        4.61488
H         13.59206       -0.76109        5.17939
H         11.03737       -2.29560        5.51961
H         12.67220       -2.78595        6.05035
H         14.65542       -2.28060        3.26193
H         14.38431       -3.85683        2.45073
H         14.99600       -3.46557        5.33942
H         16.09660       -4.05959        4.11921
H         14.67993       -4.98948        4.54515
H         10.64102       -4.82661        4.11603
H         12.26191       -5.41169        4.58703
H         11.17558       -5.33458        1.80894
H         11.36713       -6.75864        2.80314
H         12.77325       -5.86409        2.27812
H          9.28521       -2.82151        4.05680
H          7.03141       -2.23068        3.36130
H          6.63893       -1.19832        1.21879
H          8.49182       -0.73332       -0.27587
H         12.07700        0.08088       -0.90607
H         10.56868       -0.68242       -1.46105
H         13.27761       -1.94100       -1.44697
H          9.69694       -2.63069       -2.54117
H         10.24925       -4.23587       -3.03869
H         12.11284       -1.18132       -5.30075
H         13.19594       -0.44690       -3.37089
H         13.22860       -1.82112        1.12233
H         15.18678       -3.58358       -2.49737
H         16.47874       -3.78006       -4.54254
H         13.35964       -5.99819       -6.30169
H         12.07078       -5.81008       -4.25359
