59
*****
C          6.56771        6.41613        3.36208
Si         7.80666        5.53979        2.24326
C          9.06912        6.78444        1.64317
C          8.66789        4.23957        3.29774
N          6.94908        4.77477        0.93243
C          6.00339        3.77174        1.03403
C          5.43122        3.10234        2.13506
C          4.49408        2.09242        1.89815
C          4.13026        1.74657        0.60404
C          4.69090        2.41265       -0.48817
C          5.63176        3.44487       -0.28006
C          6.34963        4.30908       -1.16451
C          6.26688        4.35935       -2.66123
C          5.14572        5.30571       -3.15296
N          5.45317        5.98501       -4.44085
C          5.59173        5.07078       -5.59812
C          4.36661        4.18427       -5.72935
C          3.47520        4.03508       -4.55064
C          3.85431        4.55183       -3.37324
O          4.10886        3.55307       -6.75249
C          7.15242        5.11240       -0.37771
S          6.49602        7.31518       -4.41226
C          5.55843        8.50622       -3.48176
C          5.96774        8.88006       -2.19984
C          5.21457        9.81481       -1.48611
C          4.05540       10.38002       -2.04685
C          3.25964       11.40828       -1.27650
F          3.21968       11.15172        0.06082
F          3.77359       12.66178       -1.40311
F          1.96040       11.49162       -1.67699
C          3.67233       10.00581       -3.34596
C          4.41971        9.07059       -4.06353
O          7.66865        6.96198       -3.64347
O          6.61290        7.83494       -5.75701
H          7.08778        6.88815        4.16931
H          5.87375        5.70214        3.75390
H          6.03847        7.15545        2.79797
H          9.56507        7.22300        2.48376
H          8.57613        7.54968        1.08079
H          9.78788        6.29220        1.02190
H          9.19081        4.71909        4.09869
H          9.36284        3.69398        2.69418
H          7.93952        3.56665        3.69967
H          5.69961        3.35359        3.09936
H          4.06687        1.59717        2.69643
H          3.44207        0.99351        0.44809
H          4.41731        2.15021       -1.44801
H          6.07174        3.37363       -3.02889
H          7.19876        4.73478       -3.02941
H          5.05983        6.03745       -2.37702
H          6.45681        4.45657       -5.45924
H          5.69130        5.65511       -6.48893
H          2.57426        3.53926       -4.63711
H          3.22413        4.42693       -2.56559
H          7.79600        5.84290       -0.72004
H          6.81842        8.46956       -1.78408
H          5.51161       10.09349       -0.53789
H          2.83182       10.42575       -3.77285
H          4.13360        8.79776       -5.01680
