49
*****
C          4.41092      -11.78108        2.66882
Si         4.95435      -10.16655        3.44507
C          3.88345       -9.81755        4.95519
C          6.72563      -10.34539        4.06137
N          4.85531       -8.82649        2.33460
C          5.18773       -7.51090        2.59534
C          5.66530       -6.85316        3.74742
C          5.91743       -5.47968        3.68451
C          5.70354       -4.76882        2.51172
C          5.22946       -5.41801        1.36943
C          4.96601       -6.80474        1.40259
C          4.49640       -7.73519        0.42252
C          4.15118       -7.44445       -1.00873
C          5.39319       -7.22403       -1.90162
N          6.29997       -8.40581       -1.85287
C          5.86711       -9.56473       -2.67174
C          5.49373       -9.19389       -4.08772
C          5.06817       -7.80025       -4.34692
C          5.00384       -6.93276       -3.32831
O          5.44078      -10.01939       -4.99672
C          4.42874       -8.96890        1.04148
O          8.16769       -6.81703       -1.14641
S          7.98096       -8.08027       -1.83969
C          8.70392       -9.46040       -0.80471
F          8.10254       -9.55911        0.41544
F          8.55583      -10.67753       -1.40457
F         10.03719       -9.29296       -0.58069
O          8.41080       -8.19562       -3.22298
H          4.49059      -12.56795        3.38950
H          5.03662      -12.00162        1.82932
H          3.39494      -11.69648        2.34395
H          3.94608      -10.64149        5.63497
H          2.86697       -9.68460        4.64858
H          4.22904       -8.92834        5.43971
H          6.78481      -11.16822        4.74279
H          7.02196       -9.44668        4.56078
H          7.37614      -10.52284        3.23055
H          5.82595       -7.37676        4.62210
H          6.26735       -4.98755        4.52140
H          5.89578       -3.75527        2.48354
H          5.07167       -4.88375        0.50070
H          3.54835       -6.56100       -1.04049
H          3.63244       -8.29880       -1.39067
H          5.91357       -6.37231       -1.51603
H          5.01574      -10.01209       -2.20275
H          6.69721      -10.23734       -2.73021
H          4.82333       -7.49969       -5.30334
H          4.65797       -5.98341       -3.53840
H          4.11088       -9.84770        0.60364
