64
*****
C          4.29057      -11.64923        2.36077
Si         5.00221       -9.99033        2.87067
C          4.49731       -9.60949        4.63603
C          7.16390      -10.19184        2.92566
C          7.49147      -11.18635        4.06383
C          7.68578      -10.65517        1.50765
C          9.13334      -10.21517        1.22848
C          7.62492      -12.17261        1.27590
C          7.69141       -8.78483        3.31922
N          4.65926       -8.73339        1.71104
C          4.56867       -7.37104        1.92857
C          4.75430       -6.56316        3.06855
C          4.59537       -5.17873        2.95470
C          4.26432       -4.59713        1.73993
C          4.08238       -5.39205        0.60701
C          4.22916       -6.79448        0.69237
C          4.10365       -7.84878       -0.26544
C          3.74407       -7.72974       -1.71805
C          2.23174       -7.78904       -2.03577
N          1.65891       -9.11101       -1.67671
C          0.93311       -9.24837       -0.39447
C          0.13765       -8.05091        0.04607
C          0.47260       -6.73960       -0.53550
C          1.43391       -6.65306       -1.46014
O         -0.75365       -8.11948        0.88976
C          4.41157       -9.02142        0.39529
O          1.00354      -11.45744       -2.35692
S          1.22236      -10.15037       -2.95192
C         -0.39264       -9.44710       -3.57544
F         -0.23547       -8.17553       -4.04529
F         -0.92918      -10.18410       -4.58475
F         -1.32481       -9.37815       -2.58324
O          2.25454       -9.99680       -3.96420
H          4.52809      -12.38252        3.10290
H          4.70988      -11.94366        1.42141
H          3.22779      -11.56781        2.26711
H          4.74871      -10.43749        5.26541
H          3.44181       -9.43856        4.67615
H          5.01331       -8.73512        4.97385
H          7.13168      -12.15938        3.80179
H          7.01860      -10.86262        4.96743
H          8.55077      -11.22511        4.20973
H          7.00777      -10.17006        0.83693
H          9.79421      -10.71075        1.90860
H          9.21571       -9.15634        1.35885
H          9.39686      -10.47240        0.22385
H          8.30138      -12.66292        1.94440
H          7.90139      -12.39047        0.26546
H          6.62958      -12.52134        1.45644
H          7.31122       -8.51817        4.28320
H          7.36551       -8.06663        2.59612
H          8.76087       -8.80048        3.34945
H          5.00421       -6.98790        3.97528
H          4.72619       -4.58141        3.78604
H          4.15214       -3.57340        1.67340
H          3.83998       -4.95401       -0.29542
H          4.22296       -8.52975       -2.24298
H          4.07079       -6.75761       -2.02320
H          2.15358       -7.66639       -3.09584
H          1.65323       -9.46111        0.36780
H          0.21693      -10.02773       -0.55128
H         -0.03209       -5.89258       -0.23076
H          1.65060       -5.70869       -1.81542
H          4.44891       -9.96010       -0.03191
