86
*****
Si        10.08447       -4.62702        4.96803
C          8.86199       -5.43097        6.22159
C          9.03035       -6.84595        6.78996
C         10.07868       -6.91493        7.89984
C          7.68815       -7.32813        7.36305
C         11.27357       -6.00402        3.94108
C         10.37095       -6.78569        2.95331
C         12.42985       -5.32126        3.17408
C         11.93059       -7.03595        4.88737
C         11.35132       -3.26313        6.01040
C         12.49166       -4.00020        6.72967
C         11.93432       -2.25118        4.99764
C         10.52163       -2.49569        7.06206
N          9.13928       -3.58974        3.86725
C          8.02191       -2.82434        4.18203
C          7.29807       -2.60576        5.37356
C          6.18318       -1.76204        5.35938
C          5.77942       -1.13898        4.19006
C          6.49015       -1.34279        3.00715
C          7.62558       -2.18348        2.99286
C          8.55121       -2.54654        1.97113
C          8.58558       -2.08922        0.54082
C          8.75976       -0.56479        0.34293
N          9.78043        0.00507        1.26679
C         11.18028       -0.32044        0.89871
C         11.49797        0.00609       -0.54346
C         10.37123        0.04822       -1.50693
C          9.13275       -0.24035       -1.08286
O         12.64832        0.14207       -0.95499
C          9.44899       -3.42338        2.54615
S          9.49983        1.60281        1.77167
C         10.24680        1.62169        3.38514
C         11.47853        2.24820        3.58674
C         12.04052        2.26070        4.86557
C         11.36650        1.67267        5.95013
C         11.99385        1.65637        7.32376
F         12.82961        0.59496        7.49456
F         12.73992        2.76614        7.58249
F         11.08052        1.57879        8.33149
C         10.11974        1.06520        5.72990
C          9.55886        1.03983        4.45281
O         10.26099        2.47822        0.90655
O          8.07851        1.79647        1.96501
H          7.90558       -5.42197        5.74190
H          9.04100       -4.83671        7.09320
H          9.35875       -7.46895        5.98440
H          9.77209       -6.29840        8.71886
H         11.01874       -6.56798        7.52459
H         10.17918       -7.92672        8.23314
H          7.39052       -6.68435        8.16422
H          7.79532       -8.32763        7.72968
H          6.94424       -7.30808        6.59423
H          9.89922       -6.09925        2.28162
H          9.62285       -7.32035        3.50048
H         10.96753       -7.47720        2.39582
H         12.02971       -4.59268        2.50031
H         12.97461       -6.05751        2.62083
H         13.08528       -4.84119        3.87038
H         11.17108       -7.54130        5.44655
H         12.59294       -6.53208        5.55990
H         12.48228       -7.74840        4.31035
H         13.07680       -4.53776        6.01304
H         12.08052       -4.68585        7.44083
H         13.11176       -3.29027        7.23600
H         12.51172       -2.77353        4.26370
H         12.55985       -1.55190        5.51205
H         11.13494       -1.72767        4.51616
H         10.11325       -3.18782        7.76852
H          9.72584       -1.97156        6.57533
H         11.15075       -1.79579        7.57123
H          7.58983       -3.06585        6.25004
H          5.65453       -1.60152        6.23104
H          4.95144       -0.52298        4.19395
H          6.18507       -0.87719        2.13815
H          7.66616       -2.38064        0.07751
H          9.44768       -2.54691        0.10241
H          7.81464       -0.11746        0.56995
H         11.34064       -1.36664        1.05572
H         11.82199        0.27599        1.51303
H         10.53904        0.29729       -2.49427
H          8.37655       -0.24066       -1.78514
H         10.23225       -3.88205        2.05508
H         11.96917        2.69791        2.79803
H         12.95938        2.70590        5.01562
H          9.61414        0.63390        6.51944
H          8.64120        0.59389        4.29768
