74
*****
Si        10.05810       -4.03050        5.03370
C          8.83920       -5.63457        5.14942
C          9.06879       -6.49388        6.39471
C          7.35333       -5.26926        5.04893
C         11.73322       -4.68174        4.18869
C         12.81737       -3.59824        4.13224
C         12.30041       -5.96796        4.79606
C         10.37864       -3.30266        6.81683
C         11.33419       -4.12434        7.69244
C         10.89164       -1.85149        6.79900
N          9.25225       -2.88282        3.96685
C          8.27274       -1.96002        4.29586
C          7.57655       -1.67410        5.48829
C          6.65905       -0.61920        5.50509
C          6.42679        0.14076        4.36818
C          7.09233       -0.15428        3.17723
C          8.01048       -1.22677        3.12652
C          8.77356       -1.80685        2.06672
C          8.76768       -1.41012        0.61997
C          7.41788       -1.65374       -0.09072
N          7.50711       -1.14277       -1.48338
C          7.99322       -2.09034       -2.50627
C          7.31162       -3.43259       -2.45143
C          6.86758       -3.91249       -1.12755
C          6.96347       -3.09367       -0.07350
O          7.18391       -4.16112       -3.43215
C          9.51225       -2.83258        2.62213
O          6.75924        0.50274       -3.27823
S          6.39753        0.04161       -1.95531
C          4.87081       -0.85928       -2.09572
C          3.97259       -0.87072       -1.02359
C          2.76706       -1.56115       -1.14460
C          2.45858       -2.22418       -2.33332
C          3.34805       -2.19144       -3.40863
C          4.55397       -1.49976       -3.29736
O          6.25975        0.97538       -0.85665
H          9.10550       -6.21886        4.29351
H          8.80967       -5.93262        7.26807
H         10.09884       -6.77884        6.44647
H          8.45837       -7.37099        6.34030
H          7.07166       -4.68393        5.89919
H          6.76711       -6.16397        5.02181
H          7.18441       -4.70496        4.15565
H         11.43619       -4.92874        3.19086
H         13.12057       -3.34492        5.12662
H         12.42752       -2.72860        3.64578
H         13.66034       -3.96534        3.58493
H         12.61565       -5.77905        5.80096
H         13.13682       -6.29771        4.21590
H         11.54509       -6.72584        4.79569
H          9.40272       -3.34523        7.25349
H         12.31774       -4.09454        7.27215
H         10.99539       -5.13836        7.73571
H         11.35572       -3.71304        8.68000
H         11.86719       -1.82343        6.36036
H         10.94001       -1.47797        7.80052
H         10.22431       -1.24433        6.22374
H          7.74213       -2.23628        6.33774
H          6.14774       -0.40308        6.37507
H          5.75948        0.92721        4.40297
H          6.91351        0.41158        2.33294
H          9.52207       -1.97458        0.11284
H          8.95055       -0.35640        0.58626
H          6.67083       -1.12016        0.45893
H          9.04310       -2.23703       -2.36088
H          7.77272       -1.66326       -3.46225
H          6.48861       -4.86597       -1.01670
H          6.70023       -3.48599        0.84401
H         10.15379       -3.45778        2.10969
H          4.20036       -0.37184       -0.14937
H          2.10288       -1.58183       -0.35500
H          1.56919       -2.74080       -2.41767
H          3.11303       -2.67962       -4.28696
H          5.20706       -1.46105       -4.09548
