71
*****
Si         7.28038        2.79202        3.49057
C          6.27947        1.86427        4.84894
C          6.47786        2.14674        6.21420
C          5.76340        1.46023        7.19890
C          4.84175        0.48103        6.83973
C          4.63498        0.18403        5.49565
C          5.34822        0.86598        4.50650
C          9.13666        2.37933        3.86780
C         10.15749        3.11030        3.22683
C         11.50335        2.81617        3.45439
C         11.85480        1.77866        4.31187
C         10.86081        1.03018        4.93728
C          9.51187        1.32154        4.71473
C          6.97484        4.83755        3.76475
C          8.07523        5.41587        4.68979
C          7.04822        5.55402        2.39896
C          5.61496        5.12699        4.43605
N          6.86248        2.21425        1.88646
C          5.69051        2.39460        1.17308
C          4.45520        2.99051        1.48765
C          3.46166        3.05983        0.50646
C          3.67071        2.52875       -0.75765
C          4.87490        1.89201       -1.06087
C          5.89589        1.80929       -0.08835
C          7.18389        1.19065       -0.08181
C          7.81582        0.40222       -1.19250
C          8.95091        1.13232       -1.95473
N          8.56346        2.42560       -2.53540
C          8.73813        3.64903       -1.73934
C          9.90460        3.64418       -0.76431
C         10.67688        2.39880       -0.60041
C         10.21253        1.26870       -1.14336
O         10.21021        4.63069       -0.09739
C          7.72192        1.41797        1.16802
O          7.43221        1.32129       -4.19971
C          7.72279        2.39901       -3.66467
C          7.20080        3.74521       -4.22610
F          6.54793        4.48291       -3.28437
F          8.21424        4.52988       -4.69064
F          6.32971        3.59160       -5.26074
H          7.15984        2.87021        6.49081
H          5.91933        1.67964        8.19518
H          4.31292       -0.02362        7.56822
H          3.95238       -0.54251        5.22877
H          5.19037        0.63502        3.51314
H          9.90638        3.87410        2.57985
H         12.23815        3.36905        2.98596
H         12.84948        1.56422        4.48408
H         11.12146        0.25634        5.56836
H          8.78393        0.75443        5.17679
H          9.03677        5.23434        4.25691
H          8.02045        4.94298        5.64805
H          7.92833        6.46966        4.80317
H          7.99252        5.34951        1.93920
H          6.94292        6.60897        2.54349
H          6.26009        5.20007        1.76772
H          5.57052        4.62794        5.38150
H          4.82453        4.77236        3.80806
H          5.50736        6.18126        4.58383
H          4.28465        3.37182        2.43133
H          2.56045        3.51233        0.72576
H          2.93368        2.60468       -1.47600
H          5.01957        1.48121       -1.99646
H          7.05105        0.15158       -1.89764
H          8.26763       -0.45140       -0.73194
H          9.15663        0.48334       -2.78021
H          7.84126        3.80556       -1.17719
H          8.95196        4.42554       -2.44377
H         11.56422        2.39948       -0.07349
H         10.76876        0.41254       -0.99295
H          8.62387        1.04966        1.50842
