70
*****
C         12.02931        0.03960       -8.17901
Si        11.90468       -0.60765       -6.40339
C         11.28405       -2.43115       -6.54739
C         11.80995       -3.28628       -7.53340
C         11.36318       -4.60491       -7.64170
C         10.39204       -5.08918       -6.76878
C          9.86797       -4.25802       -5.78172
C         10.31048       -2.93841       -5.66680
C         13.62160       -0.77757       -5.63323
C         14.66052        0.09948       -6.00084
C         15.93120       -0.01482       -5.43032
C         16.18842       -1.00507       -4.48641
C         15.17607       -1.88303       -4.11048
C         13.90366       -1.77194       -4.67685
N         10.73530        0.36428       -5.54977
C         10.89383        1.10630       -4.39522
C         11.97952        1.30859       -3.51948
C         11.81063        2.13630       -2.40537
C         10.59586        2.75676       -2.15639
C          9.51797        2.56263       -3.02214
C          9.65704        1.73224       -4.15768
C          8.75065        1.34631       -5.20008
C          7.31212        1.76438       -5.33130
C          6.84824        2.10782       -6.76793
N          6.60685        0.87809       -7.57187
C          5.34248        0.16203       -7.28640
C          4.13493        1.06771       -7.28539
C          4.34838        2.49975       -6.97819
C          5.58824        2.94096       -6.72941
O          2.99146        0.65725       -7.46842
C          9.45032        0.48527       -6.01946
O          6.99453       -0.49361       -9.68272
S          7.17159        0.84872       -9.17127
C          6.03761        1.90459      -10.04464
C          6.34626        3.25686      -10.22250
C          5.46005        4.07693      -10.92086
C          4.28249        3.54414      -11.44835
C          3.99176        2.18813      -11.29185
C          4.87455        1.36047      -10.59905
O          8.47256        1.48320       -9.20554
H         12.74312       -0.54389       -8.72205
H         12.34205        1.06278       -8.16454
H         11.07315       -0.03441       -8.65355
H         12.53207       -2.93594       -8.18211
H         11.75373       -5.22228       -8.37064
H         10.06105       -6.06300       -6.85326
H          9.15050       -4.61836       -5.13331
H          9.92032       -2.33019       -4.93000
H         14.48107        0.83631       -6.70078
H         16.68106        0.63687       -5.70966
H         17.12745       -1.08798       -4.06643
H         15.36576       -2.61814       -3.41145
H         13.16016       -2.42778       -4.39030
H         12.88741        0.85165       -3.69830
H         12.60108        2.28755       -1.75935
H         10.48822        3.36378       -1.32877
H          8.61617        3.02714       -2.83239
H          7.16306        2.63020       -4.72053
H          6.73077        0.91875       -5.02826
H          7.63268        2.66697       -7.23365
H          5.42251       -0.29953       -6.32439
H          5.20066       -0.55709       -8.06592
H          3.54918        3.15229       -6.95590
H          5.69236        3.93938       -6.48996
H          9.06951        0.00852       -6.85175
H          7.22271        3.64497       -9.84011
H          5.67507        5.07828      -11.04770
H          3.62419        4.15553      -11.95615
H          3.12294        1.79777      -11.68908
H          4.67125        0.35394      -10.49615
