63
*****
C          6.93565        2.44691       -9.62168
Si         7.32019        3.08556       -7.88244
C          9.19817        3.53060       -7.85329
C          9.85004        3.99051       -9.01150
C         11.20772        4.31778       -8.98055
C         11.93014        4.20136       -7.79594
C         11.29696        3.75765       -6.63831
C          9.94247        3.41872       -6.66378
C          6.47326        4.74184       -7.55823
C          5.37855        5.15907       -8.33931
C          4.74748        6.38218       -8.09542
C          5.19551        7.20944       -7.06964
C          6.27633        6.81665       -6.28617
C          6.91129        5.59562       -6.52720
N          7.00018        1.78897       -6.75983
C          6.06640        1.73102       -5.74424
C          5.08237        2.62878       -5.28406
C          4.27806        2.25820       -4.20173
C          4.43586        1.02606       -3.58431
C          5.40303        0.12974       -4.04247
C          6.22895        0.47483       -5.13582
C          7.26517       -0.23372       -5.83051
C          7.71835       -1.63252       -5.51077
C          8.91177       -2.18112       -6.32520
N         10.19031       -1.47910       -5.97516
C         10.79113       -1.92316       -4.68802
C         10.91321       -3.42149       -4.55158
C          9.97279       -4.26045       -5.32469
C          9.05954       -3.66851       -6.10529
O         11.69577       -3.95247       -3.76720
C          7.69565        0.60569       -6.83696
O         10.53671       -0.80717       -8.40608
S         11.30396       -1.32193       -7.28381
C         12.53895       -0.03255       -6.70914
F         11.96884        0.87800       -5.87046
F         13.56440       -0.60015       -6.00984
F         13.09839        0.65387       -7.74188
O         11.94560       -2.61946       -7.40871
H          7.12262        3.22171      -10.33557
H          5.90807        2.15341       -9.67477
H          7.55884        1.60449       -9.83818
H          9.32065        4.08708       -9.89210
H         11.67696        4.64701       -9.83871
H         12.93312        4.44357       -7.77616
H         11.83033        3.67891       -5.75834
H          9.48303        3.08321       -5.80275
H          5.03749        4.55358       -9.10225
H          3.94666        6.67283       -8.67786
H          4.72743        8.11159       -6.89064
H          6.60977        7.42877       -5.52516
H          7.71308        5.31517       -5.94112
H          4.95712        3.54647       -5.73924
H          3.55663        2.91087       -3.85735
H          3.83642        0.77125       -2.78383
H          5.51507       -0.78686       -3.58168
H          6.88755       -2.28705       -5.67285
H          8.06505       -1.59043       -4.49937
H          8.70860       -1.99671       -7.35943
H         10.17895       -1.56135       -3.88849
H         11.78492       -1.52773       -4.65774
H         10.01950       -5.28958       -5.26359
H          8.39660       -4.28430       -6.60161
H          8.42216        0.38165       -7.53482
