65
*****
C         14.09834        3.96970       -6.67674
C         13.06911        5.08585       -6.56001
Si        12.23487        5.23769       -4.84276
C         13.52816        5.75586       -3.55173
C         14.27590        7.04846       -3.85123
C         10.92009        6.62474       -5.01456
C         10.10674        6.89453       -3.75572
N         11.43904        3.74234       -4.42748
C         10.49258        3.07198       -5.17926
C          9.87644        3.34945       -6.41654
C          8.94905        2.43677       -6.92844
C          8.63621        1.27407       -6.23762
C          9.24067        0.99911       -5.00917
C         10.17492        1.90709       -4.46379
C         10.92670        1.92133       -3.24657
C         10.88880        0.89190       -2.15657
C          9.56736        0.89302       -1.35818
N          9.53026       -0.30397       -0.47812
C         10.16312       -0.16309        0.84910
C          9.73451        1.07879        1.58725
C          9.38398        2.26337        0.77693
C          9.35009        2.15401       -0.55662
O          9.73873        1.16552        2.81259
C         11.69625        3.06823       -3.26350
O          8.43633       -2.49988        0.20754
S          8.19702       -1.33571       -0.61791
C          6.87806       -0.40563        0.12904
C          6.03910        0.37427       -0.67357
C          4.99837        1.09212       -0.08491
C          4.79148        1.01859        1.29345
C          5.61624        0.21979        2.08721
C          6.65729       -0.50370        1.50615
O          7.89551       -1.47697       -2.02750
H         14.50721        3.96355       -7.66552
H         13.62826        3.02899       -6.47930
H         14.88277        4.13226       -5.96741
H         12.30387        4.90957       -7.28680
H         13.60025        6.00128       -6.71743
H         14.24908        4.96903       -3.47381
H         12.98402        5.93521       -2.64805
H         14.84354        6.93192       -4.75073
H         14.93572        7.27500       -3.03992
H         13.57377        7.84657       -3.97344
H         10.24291        6.34642       -5.79487
H         11.45861        7.52542       -5.22350
H          9.54501        6.02052       -3.49988
H          9.43691        7.71013       -3.93183
H         10.76683        7.14252       -2.95092
H         10.10594        4.21141       -6.93555
H          8.49068        2.63027       -7.83259
H          7.95340        0.60944       -6.63394
H          9.00484        0.13293       -4.50011
H         11.69442        1.08505       -1.47940
H         10.97466       -0.06670       -2.62415
H          8.76525        0.85917       -2.06555
H         11.22443       -0.12999        0.71708
H          9.85488       -1.00236        1.43691
H          9.16804        3.16349        1.23320
H          9.15641        3.01638       -1.08938
H         12.35284        3.36621       -2.52517
H          6.18908        0.41817       -1.69367
H          4.38101        1.67790       -0.66866
H          4.02554        1.55704        1.72754
H          5.45548        0.16454        3.10512
H          7.25984       -1.10660        2.08793
