77
*****
C          1.56775      -11.54651        5.47355
Si         0.36029      -10.10023        5.48803
C         -1.15644      -10.57462        4.48917
C         -0.30083       -9.87548        7.53976
C         -0.39374      -11.30032        8.13574
C          0.68848       -8.92368        8.32197
C          0.11302       -8.44378        9.66606
C          2.07114       -9.52707        8.60421
C         -1.72917       -9.27339        7.47443
N          1.09261       -8.59431        5.00838
C          0.46600       -7.43102        4.60328
C         -0.88717       -7.05182        4.49830
C         -1.20132       -5.77162        4.03229
C         -0.20194       -4.87907        3.67443
C          1.14037       -5.24857        3.77858
C          1.48883       -6.53427        4.24993
C          2.74292       -7.18908        4.46303
C          4.11002       -6.63296        4.19604
C          4.96777       -7.50453        3.25119
N          4.28073       -7.72731        1.95367
C          4.36398       -6.62215        0.97795
C          5.79107       -6.18557        0.74621
C          6.73170       -6.29509        1.88500
C          6.32254       -6.87875        3.01929
O          6.18544       -5.70812       -0.31402
C          2.45402       -8.44365        4.96154
S          4.17642       -9.30476        1.35959
C          5.82021       -9.60396        0.72740
C          6.79294      -10.15534        1.56781
C          8.08795      -10.39352        1.08354
C          9.14049      -10.98329        1.99456
F          9.10812      -10.43799        3.24261
F          8.98924      -12.32349        2.16283
F         10.40973      -10.79725        1.54027
C          8.37403      -10.10089       -0.26174
C          7.39289       -9.57008       -1.12049
C          7.72965       -9.28768       -2.56860
F          7.96340      -10.43058       -3.26993
F          6.74781       -8.62790       -3.23927
F          8.85375       -8.53163       -2.70020
C          6.10630       -9.33290       -0.61527
O          3.98342      -10.21446        2.46868
O          3.28142       -9.31195        0.22340
H          1.05973      -12.43830        5.77609
H          2.37167      -11.34677        6.15084
H          1.95756      -11.67582        4.48551
H         -1.54179      -11.50659        4.84670
H         -0.88831      -10.67163        3.45786
H         -1.90383       -9.81605        4.59354
H          0.58491      -11.72981        8.18746
H         -1.01722      -11.90739        7.51313
H         -0.81317      -11.24910        9.11877
H          0.80762       -8.10241        7.64653
H          0.00218       -9.27929       10.32526
H         -0.84165       -7.98882        9.50323
H          0.77841       -7.72955       10.10427
H          1.96967      -10.35104        9.27924
H          2.70246       -8.78259        9.04249
H          2.50525       -9.86823        7.68766
H         -2.37314       -9.94007        6.93989
H         -1.69577       -8.32972        6.97118
H         -2.10370       -9.13513        8.46716
H         -1.63655       -7.71056        4.76198
H         -2.19017       -5.48698        3.95355
H         -0.45132       -3.93874        3.33004
H          1.88016       -4.58082        3.51057
H          4.62464       -6.54154        5.12969
H          3.97186       -5.69046        3.70869
H          5.10587       -8.45277        3.72728
H          3.80291       -5.78983        1.34855
H          3.96686       -6.96944        0.04705
H          7.69205       -5.92571        1.80555
H          6.99236       -6.90289        3.80401
H          3.14794       -9.15060        5.25086
H          6.55768      -10.38729        2.54550
H          9.32266      -10.27889       -0.62703
H          5.37020       -8.95828       -1.23401
