56
*****
C         10.83297       -6.20810       -6.91981
Si         9.10763       -6.24297       -6.16697
C          8.03708       -7.43448       -7.13546
C          9.29486       -6.88193       -4.40331
N          8.44248       -4.63176       -6.12475
C          9.01445       -3.51626       -5.54255
C         10.20850       -3.31673       -4.81986
C         10.51790       -2.02934       -4.37048
C          9.67119       -0.96029       -4.63019
C          8.48545       -1.15581       -5.34170
C          8.14194       -2.44719       -5.79910
C          7.01423       -2.96329       -6.51299
C          5.81399       -2.19216       -6.97610
C          4.90177       -1.72198       -5.82263
N          3.87637       -0.79174       -6.36300
C          2.64054       -1.40812       -6.88698
C          2.03122       -2.41769       -5.94884
C          2.95138       -3.17416       -5.07514
C          4.25138       -2.85594       -5.06710
O          0.83214       -2.68424       -5.93736
C          7.23909       -4.31399       -6.69610
O          2.82029        1.52559       -6.42656
S          3.76394        0.74201       -5.65885
C          3.02914        0.41285       -4.07320
C          3.84790        0.24329       -2.95196
C          3.26694       -0.00127       -1.70796
C          1.87791       -0.06218       -1.58582
C          1.06406        0.13149       -2.70321
C          1.63683        0.37993       -3.95024
O          5.11167        1.22103       -5.43073
H         11.23274       -7.20038       -6.94154
H         11.46731       -5.58087       -6.32898
H         10.77939       -5.82326       -7.91677
H          8.48851       -8.40457       -7.13032
H          7.94291       -7.09025       -8.14419
H          7.06786       -7.48971       -6.68550
H          9.70289       -7.87087       -4.42368
H          8.33676       -6.90113       -3.92732
H          9.95121       -6.23645       -3.85790
H         10.84310       -4.10711       -4.62593
H         11.38790       -1.87165       -3.83827
H          9.91928       -0.01605       -4.29570
H          7.86057       -0.35713       -5.53316
H          5.24056       -2.81740       -7.62813
H          6.17509       -1.31423       -7.46981
H          5.52117       -1.21973       -5.10920
H          2.87088       -1.89835       -7.80975
H          1.92505       -0.62272       -7.01394
H          2.59646       -3.93799       -4.47880
H          4.87042       -3.44373       -4.48717
H          6.60805       -4.97127       -7.18066
H          4.87425        0.29873       -3.04454
H          3.86425       -0.13724       -0.87744
H          1.45078       -0.25119       -0.66557
H          0.03741        0.09080       -2.60642
H          1.03784        0.53819       -4.77559
