58
*****
C         -0.48001       -3.30246        7.44887
Si         0.53896       -2.42505        8.76800
C         -0.21937       -0.74978        9.11693
C          0.44176       -3.48233       10.32449
N          2.19791       -2.31001        8.24533
C          3.02333       -3.35488        7.87678
C          2.84339       -4.75274        7.83975
C          3.89859       -5.55744        7.39953
C          5.10539       -4.99737        7.00382
C          5.28517       -3.61295        7.03888
C          4.23808       -2.77469        7.48003
C          4.11213       -1.35464        7.61202
C          5.14889       -0.32603        7.26307
C          4.91303        0.41313        5.91999
N          4.79337       -0.46059        4.75120
C          3.47597       -0.95083        4.33654
C          2.31312       -0.01723        4.62086
C          2.57296        1.21822        5.38558
C          3.76123        1.38371        5.97655
O          1.16352       -0.25812        4.25448
C          2.85245       -1.11342        8.12620
O          7.06309       -0.82932        4.72645
C          5.94639       -1.07765        4.28957
O          5.68907       -1.97797        3.30763
C          6.75505       -2.72561        2.66871
C          7.46645       -3.64617        3.66540
C          6.04361       -3.59549        1.62087
C          7.73509       -1.79458        1.94668
H         -1.49773       -3.37188        7.77188
H         -0.08817       -4.28549        7.29073
H         -0.43296       -2.74842        6.53470
H         -1.23378       -0.87629        9.43296
H         -0.19431       -0.15479        8.22797
H          0.33646       -0.26056        9.88934
H         -0.57672       -3.55262       10.64488
H          1.02882       -3.03306       11.09807
H          0.81799       -4.46173       10.11445
H          1.94826       -5.17469        8.13254
H          3.77855       -6.58196        7.36837
H          5.87347       -5.60696        6.68216
H          6.18416       -3.20216        6.74208
H          6.09832       -0.81657        7.20968
H          5.09875        0.42048        8.02800
H          5.81544        0.97155        5.78321
H          3.29132       -1.87273        4.84734
H          3.52049       -1.04958        3.27204
H          1.84572        1.94630        5.46336
H          3.90169        2.25090        6.51810
H          2.47002       -0.18847        8.37769
H          6.74701       -4.27657        4.14488
H          7.96895       -3.05427        4.40164
H          8.18029       -4.25063        3.14581
H          5.35492       -4.25194        2.11044
H          6.76797       -4.17321        1.08567
H          5.51251       -2.96710        0.93680
H          8.23904       -1.18144        2.66431
H          7.19752       -1.17307        1.26138
H          8.45298       -2.37919        1.41024
