97
*****
Si        10.40709       -4.33721        5.36817
C         12.01456       -5.03178        4.42726
C         13.22066       -5.66521        5.13566
C         12.95856       -7.06330        5.68367
C         14.39324       -5.74932        4.14436
C         11.04642       -3.36340        7.09380
C         12.09018       -2.30169        6.65656
C          9.90686       -2.64075        7.83058
C         11.70262       -4.32354        8.10970
C          9.09638       -5.93012        5.74410
C          9.29186       -6.51831        7.15079
C          7.62057       -5.49841        5.61761
C          9.34675       -7.02506        4.67949
N          9.60909       -3.21085        4.23379
C          8.51266       -2.37956        4.42114
C          7.62252       -2.16069        5.49058
C          6.59381       -1.22134        5.36402
C          6.42640       -0.50732        4.19014
C          7.28401       -0.72887        3.11404
C          8.33445       -1.66976        3.21846
C          9.33132       -2.10528        2.29720
C          9.54220       -1.62898        0.89000
C         10.52230       -0.43764        0.77683
N         10.82004       -0.11139       -0.62202
C          9.81875        0.62996       -1.39332
C          9.20471        1.78409       -0.61669
C          9.43791        1.84998        0.84210
C         10.02591        0.81586        1.45609
O          8.46890        2.61676       -1.14311
C         10.05781       -3.08510        2.93934
C         11.96098       -0.63505       -1.20135
O         12.07355       -0.30623       -2.51469
C         13.31610       -0.66032       -3.15318
C         13.37495       -2.13978       -3.55305
C         14.76051       -2.52462       -4.06347
C         15.96990       -2.47637       -3.38587
C         17.12274       -2.86937       -4.06811
C         17.05421       -3.30809       -5.40069
C         15.82978       -3.36728       -6.07377
C         14.68503       -2.97656       -5.39847
C         13.30416       -2.93828       -5.82937
C         12.50596       -2.45356       -4.76977
C         11.13091       -2.33263       -4.90240
C         10.55220       -2.69217       -6.12109
C         11.34348       -3.16684       -7.18001
C         12.72866       -3.29389       -7.03827
O         12.78735       -1.31171       -0.60240
H         12.40599       -4.20412        3.87349
H         11.60361       -5.88370        3.92701
H         13.43950       -5.03716        5.97385
H         12.73446       -7.72715        4.87498
H         12.12961       -7.03187        6.35951
H         13.82764       -7.41225        6.20120
H         14.12491       -6.38656        3.32776
H         15.25242       -6.14902        4.64129
H         14.61828       -4.77092        3.77425
H         11.64364       -1.63158        5.95196
H         12.92730       -2.79011        6.20314
H         12.41935       -1.75128        7.51306
H          9.42254       -1.96203        7.16001
H         10.30714       -2.09719        8.66077
H          9.19783       -3.36009        8.18373
H         12.50512       -4.84961        7.63628
H         10.97406       -5.02460        8.45986
H         12.08337       -3.76170        8.93691
H          9.11768       -5.75760        7.88283
H         10.29243       -6.88472        7.24830
H          8.60155       -7.32204        7.30042
H          7.40792       -4.73887        6.34064
H          6.98601       -6.34253        5.78990
H          7.44428       -5.11442        4.63456
H         10.36417       -7.35151        4.73605
H          9.15373       -6.62631        3.70551
H          8.69546       -7.85442        4.86084
H          7.72934       -2.69358        6.36787
H          5.95186       -1.05869        6.15552
H          5.66780        0.18795        4.11182
H          7.15162       -0.20316        2.23590
H          8.59659       -1.32757        0.49016
H          9.97495       -2.44253        0.34616
H         11.40792       -0.76714        1.27883
H          9.03772       -0.04478       -1.67551
H         10.31489        1.04584       -2.24526
H          9.15099        2.68264        1.38003
H         10.15016        0.88096        2.47851
H         10.81922       -3.63787        2.51539
H         14.11922       -0.45641       -2.47618
H         13.39655       -0.07989       -4.04846
H         13.06871       -2.65595       -2.66723
H         16.01616       -2.15890       -2.40501
H         18.03566       -2.83717       -3.58793
H         17.91833       -3.59032       -5.88923
H         15.78014       -3.69457       -7.05124
H         10.55133       -1.98643       -4.12185
H          9.53115       -2.60818       -6.24528
H         10.89691       -3.42505       -8.07383
H         13.30896       -3.64449       -7.81631
