66
*****
Si        10.03169       -4.20963        4.88114
C         10.01923       -2.97597        6.42879
C         10.92622       -3.40777        7.58675
C         10.36237       -1.53076        6.03422
C          8.78977       -5.71322        5.31565
C          8.83622       -6.81437        4.24823
C          8.96501       -6.29931        6.71725
C         11.82199       -4.86590        4.48530
C         12.86793       -3.74884        4.34366
C         12.35547       -5.92925        5.45217
N          9.31329       -3.39062        3.49769
C          8.05710       -2.81282        3.43757
C          7.02307       -2.66341        4.38495
C          5.84388       -2.01676        4.00485
C          5.68624       -1.52278        2.71797
C          6.71012       -1.66372        1.77833
C          7.91280       -2.31469        2.13216
C          9.11564       -2.60714        1.41535
C          9.43410       -2.26338       -0.00831
C          9.63420       -3.48855       -0.93365
N          8.44593       -4.34646       -1.03561
C          7.31692       -3.86352       -1.83990
C          7.74215       -3.20700       -3.14723
C          9.17730       -2.91344       -3.35187
C         10.02150       -3.03946       -2.32055
O          6.93309       -2.87021       -4.00882
C          9.94992       -3.27044        2.29326
O          9.35141       -5.86715        0.43360
C          8.35888       -5.46842       -0.18933
C          7.00652       -6.21643       -0.10100
F          6.73391       -6.90283       -1.24806
F          6.95794       -7.12673        0.90985
F          5.95339       -5.37160        0.09314
H          9.00857       -3.01948        6.77746
H         11.94796       -3.37545        7.27067
H         10.67594       -4.40499        7.88310
H         10.78785       -2.74429        8.41472
H         11.37297       -1.48664        5.68545
H         10.25073       -0.89248        6.88570
H          9.70231       -1.20700        5.25679
H          7.81568       -5.27046        5.31142
H          9.80660       -7.26517        4.24283
H          8.63547       -6.38842        3.28741
H          8.09896       -7.55745        4.47003
H          9.92676       -6.76220        6.79260
H          8.20305       -7.02879        6.89664
H          8.88783       -5.51703        7.44318
H         11.68217       -5.33962        3.53612
H         13.01107       -3.27208        5.29082
H         12.52619       -3.02867        3.62989
H         13.79473       -4.16802        4.01166
H         12.50813       -5.49044        6.41603
H         13.28399       -6.31265        5.08370
H         11.64664       -6.72685        5.53160
H          7.13551       -3.02618        5.34452
H          5.08048       -1.90523        4.69028
H          4.80835       -1.04896        2.45372
H          6.58767       -1.29149        0.82361
H         10.33436       -1.68519       -0.01947
H          8.58940       -1.72825       -0.38915
H         10.41471       -4.06718       -0.48542
H          6.77110       -3.14695       -1.26239
H          6.72229       -4.71616       -2.09351
H          9.52325       -2.61543       -4.27736
H         11.01414       -2.81172       -2.48734
H         10.89714       -3.61798        2.07641
