75
*****
Si         9.62134       -4.01184        5.07435
C         10.14518       -3.12485        6.68967
C         10.92578       -1.79460        6.59941
C         10.81669       -1.04888        7.93503
C         12.40392       -1.98268        6.25591
C          8.60796       -5.58445        5.55299
C          7.12829       -5.51954        5.98025
C          6.86021       -4.59878        7.16915
C          6.16439       -5.21729        4.83336
C         11.17964       -4.66285        4.12617
C         12.28556       -5.37014        4.93837
C         11.96714       -6.84379        5.20475
C         13.61430       -5.28236        4.17778
N          8.65495       -3.00570        4.02426
C          8.31405       -3.25573        2.70714
C          8.52385       -4.35733        1.85328
C          8.06703       -4.28870        0.53412
C          7.40468       -3.16257        0.06764
C          7.17176       -2.07994        0.91818
C          7.62182       -2.11983        2.25614
C          7.52182       -1.20473        3.35070
C          6.89568        0.15616        3.34683
C          7.92461        1.31519        3.38008
N          8.82861        1.32911        2.22072
C          8.30375        1.81666        0.94005
C          7.41123        3.04292        1.07091
C          6.98117        3.45727        2.42318
C          7.21755        2.64468        3.46031
O          6.99837        3.66381        0.09388
C          8.11293       -1.81817        4.43724
O         10.49173        0.30355        3.43585
C         10.05771        0.64836        2.32929
C         10.86970        0.39069        1.03656
F         11.42734        1.53881        0.55472
F         11.89419       -0.48889        1.20851
F         10.10163       -0.10787        0.02542
H         10.75718       -3.80996        7.23829
H          9.21557       -2.84467        7.13937
H         10.48477       -1.23218        5.80311
H         11.26556       -1.63582        8.70893
H          9.78562       -0.88148        8.16689
H         11.32279       -0.10903        7.86116
H         12.88190       -2.54324        7.03194
H         12.87380       -1.02558        6.16607
H         12.49038       -2.51084        5.32937
H          9.13242       -6.03911        6.36731
H          8.54269       -6.09627        4.61561
H          6.92601       -6.51773        6.30827
H          7.05069       -3.58490        6.88512
H          7.50277       -4.86844        7.98112
H          5.83937       -4.69799        7.47404
H          6.33572       -4.22338        4.47601
H          5.15659       -5.30191        5.18276
H          6.32601       -5.91496        4.03835
H         11.63043       -3.82195        3.64183
H         10.79720       -5.42495        3.47976
H         12.35011       -4.87205        5.88316
H         11.89669       -7.36731        4.27424
H         11.03655       -6.91876        5.72752
H         12.74563       -7.27519        5.79867
H         13.52190       -5.78731        3.23895
H         14.38747       -5.74343        4.75616
H         13.86064       -4.25512        4.00753
H          9.00743       -5.20179        2.19689
H          8.22458       -5.08643       -0.10136
H          7.08273       -3.12482       -0.91213
H          6.66970       -1.24894        0.56833
H          6.26435        0.24005        4.20664
H          6.35117        0.24741        2.43027
H          8.52150        1.14980        4.25259
H          7.73479        1.03161        0.48740
H          9.14608        2.10515        0.34662
H          6.50475        4.36154        2.56583
H          6.88967        2.95270        4.38909
H          8.14141       -1.44450        5.39879
