83
*****
Si         9.96218       -4.08434        5.01869
C         11.23247       -5.20933        4.05887
C         12.59776       -4.59561        3.68652
C         13.65343       -4.87372        4.76147
C         13.08506       -5.17062        2.35196
C         10.98343       -3.01169        6.26150
C         10.29672       -1.86076        7.02123
C          9.59911       -2.33514        8.29777
C         11.34050       -0.80127        7.39956
C          8.80769       -5.25325        6.00557
C          7.70966       -6.01102        5.22799
C          8.26037       -7.18971        4.42190
C          6.65173       -6.52698        6.21025
N          9.09376       -3.03994        3.92026
C          7.89449       -2.38668        4.14495
C          7.03325       -2.30683        5.25826
C          5.86691       -1.54152        5.16258
C          5.55274       -0.86433        3.99315
C          6.40234       -0.93736        2.88810
C          7.58649       -1.70422        2.95701
C          8.62504       -1.97476        2.01388
C          8.70034       -1.48579        0.59832
C          7.69951       -2.19527       -0.33944
N          7.66095       -1.48373       -1.64375
C          8.67975       -1.88344       -2.63654
C          8.78052       -3.37542       -2.82416
C          8.46219       -4.22996       -1.66158
C          8.00407       -3.66083       -0.54010
O          9.18062       -3.89483       -3.86300
C          9.54473       -2.78225        2.65189
O          6.35106       -0.20422       -3.41579
S          6.14739       -0.98696       -2.21593
C          5.36592       -2.51217       -2.69182
C          4.52864       -3.17348       -1.78729
C          3.91169       -4.36508       -2.16736
C          4.12021       -4.88215       -3.44689
C          4.93635       -4.20549       -4.35491
C          5.55470       -3.01176       -3.98392
O          5.40971       -0.44354       -1.09414
H         10.76191       -5.51714        3.14853
H         11.46844       -5.99562        4.74513
H         12.46265       -3.53721        3.60637
H         13.79953       -5.92973        4.85311
H         13.32176       -4.47693        5.69819
H         14.57626       -4.40874        4.48384
H         13.21593       -6.22843        2.44590
H         14.01789       -4.71788        2.08788
H         12.36153       -4.96699        1.59042
H         11.79062       -2.57963        5.70773
H         11.23844       -3.70403        7.03644
H          9.55284       -1.45358        6.36874
H         10.32396       -2.74758        8.96813
H          8.87477       -3.08318        8.05146
H          9.11077       -1.50640        8.76639
H         12.06982       -1.23573        8.05090
H         10.85753        0.01326        7.89775
H         11.82190       -0.44262        6.51383
H          8.31927       -4.66267        6.75227
H          9.45504       -6.02199        6.37283
H          7.28153       -5.31853        4.53368
H          8.69751       -7.90404        5.08789
H          9.00433       -6.83764        3.73817
H          7.46430       -7.65149        3.87608
H          7.10425       -7.21614        6.89229
H          5.87266       -7.02115        5.66827
H          6.23989       -5.70375        6.75577
H          7.26057       -2.80653        6.13213
H          5.23102       -1.47954        5.97302
H          4.68747       -0.30440        3.94008
H          6.16530       -0.43102        2.02067
H          9.69089       -1.65580        0.23115
H          8.44989       -0.44554        0.60542
H          6.73900       -2.15772        0.13056
H          9.63139       -1.51749       -2.31193
H          8.38494       -1.46630       -3.57674
H          8.59143       -5.25252       -1.71360
H          7.84323       -4.28442        0.26631
H         10.42463       -3.13323        2.24248
H          4.36863       -2.78255       -0.84570
H          3.30080       -4.86465       -1.50233
H          3.66914       -5.76840       -3.72279
H          5.08233       -4.58899       -5.30183
H          6.14680       -2.50133       -4.65765
