97
*****
Si        10.43562       -4.34844        5.17065
C         12.01174       -5.21117        4.53940
C         12.61368       -6.36084        5.37441
C         13.39687       -7.30944        4.45824
C         13.54812       -5.85395        6.47516
C         10.75213       -3.31984        6.77535
C         11.39625       -1.92696        6.62578
C         11.23199       -1.14786        7.93576
C         12.88077       -1.99377        6.26379
C          9.11696       -5.66759        5.70362
C          8.30387       -6.35850        4.59086
C          9.12386       -7.39042        3.81390
C          7.08182       -7.04835        5.20767
N          9.73986       -3.28564        3.96815
C          8.56155       -2.57100        4.07965
C          7.60981       -2.44311        5.11212
C          6.49029       -1.63250        4.90321
C          6.30918       -0.96387        3.70079
C          7.25140       -1.08703        2.67741
C          8.39731       -1.89205        2.86247
C          9.52779       -2.19057        2.03606
C          9.79698       -1.67419        0.65365
C         10.66093       -0.39146        0.61952
N         10.95823        0.02051       -0.75665
C          9.92634        0.73265       -1.51489
C          9.18321        1.77681       -0.69766
C          9.37031        1.78325        0.76802
C         10.03506        0.77485        1.34430
O          8.38957        2.56831       -1.20320
C         10.33342       -3.05057        2.75663
C         12.09847       -0.47410       -1.36432
O         12.17660       -0.12814       -2.67543
C         13.40329       -0.46297       -3.35288
C         13.48377       -1.94251       -3.75045
C         14.84338       -2.27900       -4.35725
C         16.09594       -2.17816       -3.76982
C         17.21105       -2.52994       -4.53265
C         17.06371       -2.98034       -5.85488
C         15.79706       -3.09270       -6.43673
C         14.68964       -2.74268       -5.68153
C         13.28094       -2.76143       -6.01162
C         12.54270       -2.29888       -4.89994
C         11.15771       -2.23696       -4.93262
C         10.50731       -2.63207       -6.10324
C         11.23853       -3.08366       -7.21405
C         12.63439       -3.15203       -7.17296
O         12.94644       -1.14580       -0.79079
H         12.76737       -4.45904        4.44866
H         11.70205       -5.68485        3.63132
H         11.79795       -6.87158        5.84198
H         14.20602       -6.77794        4.00251
H         12.74644       -7.68902        3.69813
H         13.78449       -8.12311        5.03495
H         14.37429       -5.33814        6.03213
H         13.91014       -6.68359        7.04573
H         13.01331       -5.18571        7.11729
H         11.39306       -3.90107        7.40485
H          9.77491       -3.12255        7.16398
H         10.89418       -1.43264        5.82051
H         11.74219       -1.66234        8.72309
H         10.19229       -1.06936        8.17608
H         11.64683       -0.16808        7.82244
H         13.41765       -2.48377        7.04901
H         13.26174       -1.00207        6.13614
H         13.00147       -2.54220        5.35300
H          8.42010       -5.17888        6.35204
H          9.68746       -6.45499        6.15019
H          8.00506       -5.59912        3.89880
H          9.44037       -8.16758        4.47778
H          9.98188       -6.91534        3.38612
H          8.52278       -7.80999        3.03444
H          7.40646       -7.80181        5.89455
H          6.49814       -7.49974        4.43278
H          6.48785       -6.32502        5.72622
H          7.73767       -2.93993        6.00758
H          5.78899       -1.52991        5.65333
H          5.47450       -0.37299        3.56221
H          7.11029       -0.58913        1.78454
H          8.85885       -1.46080        0.18537
H         10.34937       -2.43379        0.14104
H         11.56374       -0.65448        1.13007
H          9.21694        0.01724       -1.87524
H         10.42163        1.25012       -2.30975
H          8.99331        2.55525        1.33978
H         10.12755        0.79665        2.37192
H         11.23023       -3.44835        2.43643
H         14.22359       -0.23933       -2.70327
H         13.43888        0.11301       -4.25392
H         13.25741       -2.46265       -2.84319
H         16.20059       -1.85225       -2.79624
H         18.15438       -2.45824       -4.12032
H         17.90071       -3.23149       -6.40387
H         15.68971       -3.42870       -7.40658
H         10.62235       -1.90782       -4.11403
H          9.47729       -2.59182       -6.15283
H         10.73935       -3.36853       -8.07118
H         13.17077       -3.48581       -7.98900
