52
*****
C         -0.60396      -11.99008        2.56002
Si         0.77444      -11.62775        3.79246
C          0.06698      -11.94963        5.50913
C          2.19614      -12.80545        3.48588
N          1.25054       -9.95580        3.66138
C          0.44099       -8.84840        3.83210
C         -0.92584       -8.69883        4.14418
C         -1.45763       -7.40987        4.24642
C         -0.66059       -6.29141        4.04452
C          0.69357       -6.43691        3.73476
C          1.25928       -7.72631        3.62605
C          2.57971       -8.19419        3.33685
C          3.79661       -7.36488        3.05618
C          4.71374       -7.18494        4.28885
N          6.00741       -6.59908        3.92273
C          6.11666       -5.14632        3.77832
C          5.31846       -4.35182        4.79720
C          4.34318       -5.07221        5.63934
C          4.07669       -6.35651        5.37619
O          5.41245       -3.13020        4.90002
C          2.53107       -9.57462        3.36467
C          6.96418       -7.44680        3.39162
O          8.05605       -6.78089        2.93327
C          9.13472       -7.58926        2.41037
C         10.29085       -7.76020        3.41217
Cl         9.78341       -8.62769        4.89056
Cl        11.61406       -8.69248        2.63452
Cl        10.94465       -6.15722        3.88773
O          6.84373       -8.66314        3.32854
H         -0.89486      -13.01652        2.64186
H         -0.25483      -11.79638        1.56730
H         -1.44496      -11.36311        2.77101
H         -0.22472      -12.97608        5.58797
H         -0.78616      -11.32330        5.66650
H          0.81010      -11.73229        6.24766
H          1.85026      -13.81378        3.57827
H          2.96891      -12.62625        4.20394
H          2.58211      -12.64967        2.50015
H         -1.52350       -9.52661        4.29455
H         -2.45658       -7.28824        4.47516
H         -1.07064       -5.34769        4.12368
H          1.28104       -5.60172        3.58526
H          3.47947       -6.39807        2.72512
H          4.36573       -7.88034        2.31099
H          4.87144       -8.17059        4.67425
H          5.77070       -4.88036        2.80134
H          7.14569       -4.90050        3.93824
H          3.87265       -4.59088        6.42161
H          3.37253       -6.82175        5.97011
H          3.32533      -10.21030        3.19121
H          9.51475       -7.12182        1.52607
H          8.73878       -8.56204        2.20586
