85
*****
Si         9.85680       -4.01070        4.81668
C          9.23702       -4.19436        6.63534
C          9.01141       -2.92660        7.48485
C          7.82800       -2.07863        7.01791
C          8.79352       -3.32918        8.94864
C         10.13698       -6.03036        4.14843
C          8.83796       -6.82301        4.42029
C         10.41244       -6.03338        2.63029
C         11.29220       -6.68698        4.92374
C         11.71918       -3.05631        4.86571
C         12.48741       -3.49313        6.13832
C         12.58354       -3.38902        3.63431
C         11.50868       -1.52299        4.93959
N          8.71938       -3.31299        3.68134
C          7.34463       -3.48867        3.63960
C          6.42680       -4.16912        4.46673
C          5.06703       -4.16109        4.14001
C          4.61210       -3.50043        3.01049
C          5.51344       -2.83343        2.18098
C          6.89240       -2.82003        2.48868
C          8.02691       -2.25658        1.82929
C          8.03151       -1.48910        0.53549
C          9.04707       -2.02276       -0.50457
N          8.99363       -3.44904       -0.83623
C         10.15057       -3.93309       -1.59005
C         10.30952       -3.09506       -2.86197
C          9.62129       -1.77222       -2.92667
C          9.04212       -1.27806       -1.81987
O         11.05266       -3.42595       -3.78408
C          9.12520       -2.57029        2.60423
O          6.68420       -3.55319       -0.90331
C          7.77491       -4.09954       -0.98300
O          7.94347       -5.42685       -1.21367
C          6.80890       -6.32773       -1.27619
C          5.89378       -5.99569       -2.45920
C          7.42985       -7.71344       -1.51015
C          6.04720       -6.35209        0.05404
H          9.95763       -4.79300        7.15230
H          8.25583       -4.60781        6.52942
H          9.88808       -2.32343        7.37288
H          6.92463       -2.64421        7.11249
H          7.96974       -1.80144        5.99421
H          7.76141       -1.19679        7.62026
H          7.91140       -3.92985        9.02583
H          8.67963       -2.44966        9.54729
H          9.63752       -3.88889        9.29404
H          8.02752       -6.37399        3.88506
H          8.62431       -6.80890        5.46865
H          8.96289       -7.83479        4.09535
H          9.59412       -5.57162        2.11840
H         10.52276       -7.04175        2.28982
H         11.31146       -5.48888        2.42983
H         11.07368       -6.67042        5.97106
H         12.19753       -6.14716        4.73971
H         11.40884       -7.70004        4.59970
H         12.64680       -4.55089        6.11325
H         11.91444       -3.23923        7.00558
H         13.43153       -2.99094        6.17500
H         12.73221       -4.44716        3.57828
H         13.53120       -2.89981        3.72103
H         12.08746       -3.05114        2.74851
H         10.90876       -1.28607        5.79333
H         11.01409       -1.18769        4.05198
H         12.45783       -1.03635        5.02449
H          6.75637       -4.66937        5.30706
H          4.39403       -4.65350        4.74797
H          3.60556       -3.50181        2.78267
H          5.17121       -2.34691        1.33765
H          8.27251       -0.46878        0.74944
H          7.05810       -1.59858        0.10493
H          9.94773       -1.84660        0.04559
H         10.00186       -4.95932       -1.85393
H         11.03229       -3.84654       -0.99007
H          9.59069       -1.24293       -3.81208
H          8.57759       -0.35785       -1.86938
H         10.09793       -2.28977        2.40391
H          6.46684       -5.98999       -3.36279
H          5.45347       -5.03197       -2.31002
H          5.12190       -6.73322       -2.53103
H          7.96574       -7.71238       -2.43628
H          6.65461       -8.44999       -1.54749
H          8.10167       -7.94301       -0.70961
H          5.60832       -5.39248        0.23136
H          6.72435       -6.58690        0.84854
H          5.27729       -7.09389        0.01065
