82
*****
Si         7.28409        3.43623        4.06793
C          9.09077        4.10154        4.32797
C          9.54853        4.44132        5.61608
C         10.84536        4.92102        5.81337
C         11.70462        5.07745        4.73033
C         11.26495        4.76475        3.44710
C          9.96736        4.28692        3.24334
C          6.16893        4.75865        4.86346
C          6.57013        6.10912        4.91300
C          5.74769        7.08693        5.47954
C          4.50494        6.74032        5.99929
C          4.08019        5.41668        5.94768
C          4.90035        4.43601        5.38181
C          7.20522        1.62518        5.17995
C          7.00749        1.92262        6.68124
C          6.02140        0.77983        4.65764
C          8.52041        0.83606        4.99837
N          6.95816        3.04048        2.39155
C          5.92251        3.49124        1.58825
C          4.90770        4.45361        1.76412
C          3.96306        4.64628        0.75083
C          4.01274        3.90634       -0.42010
C          5.02470        2.96527       -0.61030
C          6.00101        2.75907        0.39030
C          7.15414        1.91920        0.46131
C          7.65748        0.97628       -0.59118
C          8.68472        1.61085       -1.55630
N          9.30896        0.53774       -2.37656
C          8.52053        0.08102       -3.54297
C          8.03987        1.21827       -4.41048
C          7.80638        2.52498       -3.75793
C          8.08811        2.66581       -2.45643
O          7.78287        1.08653       -5.60428
C          7.72746        2.13812        1.69667
S         10.99622        0.52578       -2.51677
C         11.33509        1.87274       -3.63095
C         11.61288        3.14342       -3.12004
C         11.88606        4.19490       -3.99817
C         11.89879        3.98186       -5.38679
C         12.18712        5.11102       -6.34917
F         12.44678        6.29736       -5.73201
F         13.26415        4.85858       -7.14234
F         11.14608        5.35082       -7.19319
C         11.64363        2.69153       -5.88106
C         11.37379        1.63620       -5.00794
O         11.55568        0.87341       -1.22768
O         11.38249       -0.69706       -3.18690
H          8.91696        4.33432        6.42521
H         11.16688        5.15994        6.76446
H         12.66529        5.42435        4.87793
H         11.89988        4.88627        2.64266
H          9.64875        4.06765        2.28656
H          7.48682        6.38044        4.52429
H          6.06338        8.06892        5.51232
H          3.90037        7.46228        6.42155
H          3.15659        5.15774        6.32837
H          4.57024        3.45898        5.34341
H          6.09839        2.46965        6.81975
H          7.83126        2.50277        7.04142
H          6.95573        1.00165        7.22351
H          5.11008        1.32628        4.78331
H          5.96689       -0.13607        5.20814
H          6.16768        0.56404        3.61988
H          9.34016        1.42106        5.35988
H          8.66651        0.62028        3.96059
H          8.46572       -0.07984        5.54885
H          4.86219        5.01044        2.63182
H          3.21834        5.34950        0.87684
H          3.30011        4.05182       -1.15223
H          5.06047        2.41793       -1.48446
H          6.82185        0.63391       -1.16512
H          8.15834        0.17932       -0.08235
H          9.41876        2.10720       -0.95653
H          7.66886       -0.46079       -3.18800
H          9.16113       -0.53103       -4.14292
H          7.43064        3.31906       -4.29949
H          7.87772        3.58113       -2.02869
H          8.59338        1.69615        2.04288
H         11.61620        3.30397       -2.10061
H         12.08026        5.13668       -3.62352
H         11.65580        2.52241       -6.89904
H         11.20397        0.68746       -5.37684
