80
*****
Si        10.03309       -4.40084        5.23908
C         10.27739       -3.30398        6.86061
C         11.23446       -3.90861        7.89436
C         10.72907       -1.86898        6.54300
C          8.69978       -5.82902        5.67117
C          8.57595       -6.85096        4.53325
C          8.92790       -6.52616        7.01251
C         11.70640       -5.18201        4.61877
C         12.82277       -4.14429        4.42315
C         12.24212       -6.34063        5.46745
N          9.26128       -3.43021        3.99010
C          8.10322       -2.68321        4.12010
C          7.19912       -2.48858        5.18472
C          6.11360       -1.62696        5.00206
C          5.92227       -0.96765        3.79597
C          6.81446       -1.15945        2.73863
C          7.91625       -2.02967        2.89188
C          8.97655       -2.42708        2.01935
C          9.22298       -1.94871        0.62103
C         10.19524       -0.74798        0.57402
N         11.58327       -1.18301        0.88974
C         12.35551       -1.75963       -0.23028
C         12.34792       -0.86456       -1.44441
C         11.12502       -0.07025       -1.69309
C         10.15471       -0.05999       -0.77005
O         13.27672       -0.80789       -2.24517
C          9.75373       -3.32947        2.71781
S         12.43525       -0.34070        2.08219
C         12.88949        1.17528        1.25589
C         12.03372        2.27975        1.32167
C         12.37757        3.47550        0.67347
C         11.44776        4.66597        0.73739
F         10.14329        4.31280        0.56621
F         11.51251        5.31220        1.93126
F         11.70743        5.60171       -0.21630
C         13.60560        3.54948       -0.00762
C         14.48530        2.45138       -0.05320
C         15.80356        2.57145       -0.78654
F         16.58622        3.56005       -0.27304
F         16.55565        1.43900       -0.74871
F         15.63551        2.87344       -2.10259
C         14.11863        1.26187        0.59274
O         11.52655        0.01528        3.14894
O         13.66147       -1.05805        2.35679
H          9.30034       -3.28297        7.29631
H         12.22340       -3.94346        7.48732
H         10.91461       -4.89977        8.13970
H         11.23337       -3.30460        8.77758
H         11.70613       -1.89078        6.10736
H         10.75371       -1.29481        7.44556
H         10.04170       -1.42273        5.85505
H          7.76868       -5.31168        5.77271
H          9.50216       -7.37509        4.42221
H          8.34223       -6.34261        3.62119
H          7.79711       -7.54780        4.76286
H          9.85034       -7.06745        6.98081
H          8.12270       -7.20448        7.20341
H          8.97031       -5.79448        7.79209
H         11.42975       -5.59053        3.66930
H         13.09991       -3.73535        5.37229
H         12.47269       -3.35977        3.78528
H         13.67302       -4.61516        3.97567
H         12.53150       -5.97364        6.42999
H         13.09044       -6.77593        4.98190
H         11.47838       -7.08108        5.58289
H          7.33674       -2.97464        6.08462
H          5.44544       -1.47915        5.77455
H          5.11705       -0.33271        3.67980
H          6.66850       -0.66490        1.84468
H          8.28977       -1.65281        0.18921
H          9.66945       -2.75275        0.07415
H          9.87821       -0.04493        1.31571
H         11.92709       -2.70374       -0.49488
H         13.37002       -1.87035        0.09131
H         11.02090        0.46912       -2.56673
H          9.29806        0.46806       -0.99880
H         10.56804       -3.84120        2.34356
H         11.14822        2.21494        1.84770
H         13.86734        4.42682       -0.48385
H         14.75559        0.45001        0.57900
