58
*****
C         12.65366       -7.62604       -2.32531
C         13.53300       -7.54402       -1.08477
Si        12.58508       -7.65991        0.58603
C         11.80883       -9.37280        0.76524
C         12.68803      -10.54644        0.34857
C         13.95350       -7.47168        1.94089
C         13.44388       -7.50624        3.37486
N         11.49990       -6.30426        0.75907
C         10.26558       -6.26395        1.37986
C          9.48959       -7.22836        2.05349
C          8.24770       -6.85771        2.57926
C          7.77622       -5.56021        2.44755
C          8.54327       -4.59833        1.78882
C          9.80336       -4.94270        1.25163
C         10.80522       -4.18897        0.56502
C         10.75917       -2.72934        0.22122
C         11.05017       -1.80913        1.42780
N         12.42148       -2.05296        1.96706
C         13.51624       -1.42618        1.18416
C         13.28082        0.03223        0.87138
C         11.88159        0.51078        0.83255
C         10.88626       -0.35562        1.06149
O         14.19024        0.79788        0.56004
C         11.83903       -5.06086        0.28885
O         11.37024       -2.53779        4.23909
S         12.57817       -1.96152        3.67342
C         14.03138       -3.07224        4.06547
F         13.95015       -4.26907        3.41716
F         15.21673       -2.51154        3.68772
F         14.13143       -3.34363        5.39634
O         12.89963       -0.57410        3.96149
H         13.26441       -7.55321       -3.20086
H         11.94713       -6.82254       -2.31543
H         12.13157       -8.56000       -2.33130
H         14.05430       -6.60988       -1.10754
H         14.18432       -8.39218       -1.12083
H         10.92346       -9.39646        0.16486
H         11.62841       -9.50206        1.81197
H         12.90627      -10.47520       -0.69651
H         12.17382      -11.46425        0.54379
H         13.60110      -10.52362        0.90597
H         14.44797       -6.53548        1.78622
H         14.60192       -8.31585        1.83216
H         12.78629       -6.67841        3.53973
H         14.27216       -7.44363        4.04935
H         12.91497       -8.42097        3.54347
H          9.83335       -8.19585        2.15752
H          7.67403       -7.55977        3.07225
H          6.85550       -5.30523        2.83778
H          8.18916       -3.63363        1.69401
H          9.78400       -2.49924       -0.15429
H         11.52319       -2.55025       -0.50617
H         10.33647       -2.04483        2.18937
H         13.61833       -1.95745        0.26100
H         14.39997       -1.47838        1.78516
H         11.67464        1.50157        0.63122
H          9.92209        0.00321        0.98002
H         12.71978       -4.81803       -0.19109
