62
*****
C          4.75875        0.29890       -9.06654
Si         6.28087        0.93997       -8.15919
C          7.85111        0.72330       -9.20386
C          7.90318       -0.22548      -10.24183
C          9.06531       -0.39110      -11.00021
C         10.19284        0.38112      -10.73323
C         10.16194        1.32092       -9.70698
C          9.00253        1.49191       -8.94699
C          6.09287        2.83673       -7.98446
C          5.57524        3.60280       -9.04554
C          5.43071        4.98662       -8.92186
C          5.80394        5.62687       -7.74314
C          6.32729        4.88602       -6.68678
C          6.47494        3.50206       -6.80452
N          6.37950        0.14250       -6.61217
C          5.46121        0.22964       -5.58223
C          4.27650        0.97662       -5.41974
C          3.56046        0.84843       -4.22632
C          4.00170        0.00420       -3.21606
C          5.17329       -0.73874       -3.37780
C          5.91612       -0.63316       -4.57389
C          7.10447       -1.27495       -5.04883
C          7.89147       -2.34299       -4.34698
C          7.59855       -3.78685       -4.83895
N          6.18358       -4.18490       -4.77498
C          5.31854       -3.96122       -5.94347
C          6.00446       -3.99935       -7.29919
C          7.46743       -4.17560       -7.33964
C          8.16791       -4.06574       -6.20589
O          5.38666       -3.88063       -8.35601
C          7.38174       -0.73423       -6.28934
O          6.36818       -4.41973       -2.49946
C          5.63872       -4.42821       -3.49959
C          4.12224       -4.72958       -3.38990
F          3.35385       -3.75696       -3.95583
F          3.78817       -5.89275       -4.01761
F          3.69380       -4.85159       -2.10340
H          4.68318        0.77907      -10.01976
H          3.88334        0.51209       -8.48938
H          4.84546       -0.75847       -9.20568
H          7.07408       -0.80534      -10.44526
H          9.08791       -1.08822      -11.76082
H         11.04955        0.25691      -11.29504
H         10.99752        1.89267       -9.50714
H          8.98968        2.19052       -8.18752
H          5.29951        3.13722       -9.92430
H          5.04623        5.53599       -9.70633
H          5.69285        6.64887       -7.65258
H          6.60694        5.36085       -5.81423
H          6.86827        2.96176       -6.01814
H          3.94454        1.60574       -6.16743
H          2.69136        1.38898       -4.09407
H          3.46087       -0.07476       -2.34068
H          5.49591       -1.36464       -2.62335
H          7.66480       -2.29334       -3.30245
H          8.92230       -2.15175       -4.56082
H          8.11144       -4.40181       -4.12926
H          4.86345       -2.99901       -5.83411
H          4.62537       -4.77632       -5.94862
H          7.94477       -4.38107       -8.23124
H          9.19106       -4.18254       -6.27321
H          8.20380       -0.95330       -6.87351
