71
*****
C         14.82545       -7.13404        1.75571
C         14.76585       -6.55127        3.16182
Si        13.04084       -6.65006        3.99637
C         12.54110       -8.46663        4.21001
C         13.64146       -9.40449        4.69356
C         13.26362       -5.93582        5.78126
C         13.72701       -4.48956        5.86679
N         11.89434       -5.63943        3.15079
C         10.54585       -5.85703        2.93678
C          9.66541       -6.89566        3.29948
C          8.32512       -6.82281        2.90772
C          7.85405       -5.74304        2.17705
C          8.71752       -4.70552        1.82373
C         10.07772       -4.75229        2.20313
C         11.17575       -3.85923        1.99890
C         11.15058       -2.54425        1.27235
C         12.06228       -2.50744        0.02651
N         11.71590       -3.60756       -0.91975
C         10.53237       -3.34274       -1.77365
C         10.57339       -2.00134       -2.46349
C         11.35623       -0.92243       -1.82096
C         11.99760       -1.17287       -0.67204
O          9.90905       -1.75000       -3.46642
C         12.27271       -4.43810        2.60536
S         13.04025       -4.33761       -1.68826
C         12.42595       -5.96336       -2.07199
C         11.78550       -6.70427       -1.07263
C         11.29919       -7.98858       -1.35401
C         10.59502       -8.78805       -0.28110
F          9.30826       -8.38880       -0.09998
F         10.53667      -10.11993       -0.56266
F         11.20456       -8.69398        0.93128
C         11.45876       -8.50380       -2.65352
C         12.09778       -7.76055       -3.66433
C         12.29590       -8.35394       -5.04137
F         11.27532       -9.17496       -5.41304
F         12.39524       -7.41420       -6.02017
F         13.42876       -9.10299       -5.11850
C         12.58599       -6.48112       -3.36018
O         13.25642       -3.63267       -2.93265
O         14.10497       -4.52481       -0.72838
H         15.81909       -7.03631        1.37095
H         14.14396       -6.60630        1.12171
H         14.55518       -8.16888        1.78676
H         15.05215       -5.52167        3.10857
H         15.42688       -7.14077        3.76219
H         12.19611       -8.82587        3.26300
H         11.79452       -8.47466        4.97646
H         14.42467       -9.44076        3.96543
H         13.23813      -10.38574        4.83272
H         14.03389       -9.04521        5.62190
H         13.98514       -6.54147        6.28869
H         12.28929       -5.95355        6.22315
H         14.70353       -4.40197        5.43827
H         13.75885       -4.18528        6.89213
H         13.04460       -3.86405        5.33016
H         10.00587       -7.70084        3.84793
H          7.67748       -7.58360        3.16617
H          6.86237       -5.70650        1.89374
H          8.36153       -3.90144        1.28359
H         11.47027       -1.77857        1.94794
H         10.14763       -2.39397        0.93116
H         13.06733       -2.65134        0.36425
H          9.65690       -3.38076       -1.15964
H         10.52471       -4.08960       -2.53984
H         11.40749        0.01314       -2.25352
H         12.49049       -0.38346       -0.22605
H         13.22151       -4.03383        2.64248
H         11.67108       -6.30501       -0.12789
H         11.09974       -9.44670       -2.87047
H         13.06233       -5.92336       -4.08615
