74
*****
C          1.62187       -9.88632        7.49146
Si         0.44340       -8.43790        7.24247
C         -1.03753       -9.03574        6.25607
C         -0.30275       -7.90770        9.20777
C         -0.47638       -9.23149        9.98930
C          0.68300       -6.88527        9.90062
C          0.06226       -6.20363       11.13283
C          2.02729       -7.48337       10.33689
C         -1.70270       -7.27691        8.98472
N          1.22342       -7.02454        6.58858
C          0.63793       -5.93057        5.97996
C         -0.70122       -5.56461        5.73745
C         -0.96938       -4.36570        5.06997
C          0.06172       -3.53987        4.64783
C          1.39010       -3.89538        4.88902
C          1.69222       -5.09948        5.56403
C          2.92249       -5.71936        5.95097
C          4.30958       -5.20601        5.70091
C          5.24390       -6.21899        5.00208
N          4.67333       -6.67797        3.71083
C          4.82582       -5.75319        2.56998
C          6.25000       -5.28451        2.39301
C          7.10329       -5.21133        3.60126
C          6.61237       -5.62143        4.77827
O          6.70433       -4.91153        1.31441
C          2.58694       -6.88764        6.60553
S          4.65427       -8.33794        3.39192
C          6.35929       -8.69801        3.01458
C          7.21486       -9.13724        4.02877
C          8.54706       -9.42782        3.72815
C          9.03081       -9.29012        2.41585
C         10.46911       -9.62539        2.09556
F         11.32501       -9.28274        3.09907
F         10.65543      -10.95623        1.88224
F         10.93359       -8.99565        0.98128
C          8.14751       -8.88179        1.40285
C          6.81335       -8.59299        1.69711
O          4.33318       -9.04174        4.61604
O          3.89309       -8.56534        2.18256
H          1.08355      -10.71907        7.89349
H          2.39810       -9.60186        8.17077
H          2.05334      -10.16072        6.55155
H         -1.45287       -9.90253        6.72626
H         -0.72781       -9.28300        5.26218
H         -1.77610       -8.26248        6.21752
H          0.48218       -9.67866       10.15084
H         -1.09163       -9.90076        9.42500
H         -0.93978       -9.03063       10.93261
H          0.86463       -6.17198        9.12401
H         -0.11054       -6.93414       11.89533
H         -0.86618       -5.74795       10.85849
H          0.73189       -5.45488       11.50142
H          1.86331       -8.19994       11.11441
H          2.66392       -6.70340       10.69915
H          2.49190       -7.96379        9.50129
H         -2.34543       -7.99204        8.51525
H         -1.60972       -6.41505        8.35747
H         -2.11836       -6.98866        9.92760
H         -1.47401       -6.17375        6.04854
H         -1.94772       -4.09162        4.88899
H         -0.15362       -2.65974        4.15384
H          2.15363       -3.27697        4.57340
H          4.74458       -4.94253        6.64233
H          4.21336       -4.37007        5.03997
H          5.33840       -7.06658        5.64828
H          4.20147       -4.89985        2.73398
H          4.54444       -6.28141        1.68301
H          8.06701       -4.84781        3.53707
H          7.22281       -5.52009        5.60417
H          3.25253       -7.54835        7.03619
H          6.86431       -9.24604        4.99329
H          9.18227       -9.74660        4.47642
H          8.48761       -8.79445        0.43243
H          6.16683       -8.30386        0.94648
