84
*****
C          8.44188       -0.06912       -3.31141
Si         7.73413       -1.45756       -4.36259
C          5.82541       -1.48658       -4.12004
C          5.11698       -0.28692       -3.91102
C          3.73149       -0.29750       -3.73352
C          3.03219       -1.50091       -3.75954
C          3.71628       -2.69638       -3.96323
C          5.10199       -2.69297       -4.14183
C          7.97691       -1.05189       -6.21052
C          9.28486       -1.01982       -6.73633
C          9.51054       -0.72673       -8.08344
C          8.43853       -0.45741       -8.92869
C          7.13971       -0.48174       -8.42862
C          6.90799       -0.77549       -7.08177
N          8.40876       -3.00634       -3.91621
C          8.46390       -4.15532       -4.68553
C          8.01537       -4.46187       -5.98679
C          8.24014       -5.74477       -6.49399
C          8.88745       -6.70849       -5.73369
C          9.32115       -6.41266       -4.43973
C          9.11092       -5.12434       -3.90264
C          9.42726       -4.53161       -2.64101
C         10.12479       -5.18792       -1.48784
C          9.22659       -6.14256       -0.66869
N         10.00810       -6.86604        0.34287
C         10.30158       -6.21622        1.61678
C          9.14686       -5.40861        2.18235
C          8.00241       -5.10993        1.29722
C          8.07417       -5.43581        0.00163
O          9.16406       -4.93130        3.31577
C          8.97287       -3.22818       -2.68547
C         10.73411       -8.00247        0.02625
O         10.46356       -8.45821       -1.22450
C         10.97601       -9.76008       -1.56953
C          9.86937      -10.82467       -1.52112
C          8.68508      -10.50760       -2.43020
C          8.67807      -10.30466       -3.80180
C          7.45622      -10.03015       -4.41931
C          6.27026       -9.96390       -3.67012
C          6.28246      -10.18022       -2.28915
C          7.49279      -10.45638       -1.67499
C          7.80146      -10.73316       -0.28825
C          9.18964      -10.95954       -0.16346
C          9.76194      -11.26006        1.06295
C          8.92902      -11.32053        2.18158
C          7.54871      -11.09113        2.06306
C          6.97568      -10.79669        0.82221
O         11.53360       -8.53331        0.78775
H          8.00795        0.86188       -3.61114
H          9.50286       -0.02705       -3.44350
H          8.21769       -0.25188       -2.28125
H          5.62736        0.60976       -3.88879
H          3.22508        0.58897       -3.58273
H          2.00861       -1.50694       -3.62809
H          3.19777       -3.58846       -3.98236
H          5.59990       -3.58447       -4.29126
H         10.08690       -1.21567       -6.11714
H         10.47417       -0.70993       -8.45242
H          8.60593       -0.24022       -9.92359
H          6.34426       -0.28200       -9.05503
H          5.94072       -0.78973       -6.72232
H          7.52923       -3.75081       -6.55518
H          7.92034       -5.97852       -7.44694
H          9.04918       -7.64891       -6.12672
H          9.79523       -7.13572       -3.87629
H         10.48615       -4.42221       -0.83361
H         10.91205       -5.78312       -1.90119
H          8.81811       -6.83627       -1.37354
H         11.13350       -5.55852        1.47451
H         10.50613       -6.99588        2.32048
H          7.15648       -4.65470        1.67431
H          7.26956       -5.18109       -0.59230
H          9.04541       -2.53773       -1.92189
H         11.74678      -10.02639       -0.87677
H         11.36207       -9.71841       -2.56658
H         10.41130      -11.70224       -1.80588
H          9.55072      -10.35505       -4.35041
H          7.42427       -9.87400       -5.43893
H          5.37864       -9.75290       -4.14501
H          5.40988      -10.13519       -1.73997
H         10.77569      -11.43426        1.14662
H          9.33245      -11.53639        3.10661
H          6.94994      -11.14048        2.90214
H          5.96084      -10.63050        0.73554
