89
*****
Si        10.03263       -4.60798        5.05591
C          8.83815       -5.22225        6.43442
C          8.92379       -6.60606        7.09090
C         10.04364       -6.70136        8.12627
C          7.59177       -6.92030        7.79088
C         11.01956       -6.14442        4.03896
C          9.98400       -6.88176        3.15304
C         12.18380       -5.62136        3.16612
C         11.63581       -7.18506        5.00275
C         11.48875       -3.31080        5.92059
C         12.60391       -4.10749        6.61452
C         12.08682       -2.41713        4.81019
C         10.80297       -2.40672        6.96631
N          9.11134       -3.54831        3.95612
C          8.07522       -2.68201        4.28725
C          7.43634       -2.34924        5.49989
C          6.38071       -1.43229        5.49454
C          5.95829       -0.84062        4.31561
C          6.59333       -1.14833        3.11277
C          7.66461       -2.06907        3.08854
C          8.51170       -2.54191        2.04486
C          8.52032       -2.13197        0.60062
C          8.84223       -0.63764        0.35702
N          9.95268       -0.15520        1.22512
C         11.29128       -0.66412        0.83713
C         11.59624       -0.41803       -0.62519
C         10.44987       -0.25242       -1.55336
C          9.19978       -0.38242       -1.08621
O         12.73840       -0.44458       -1.07849
C          9.36466       -3.46456        2.61547
S          9.88135        1.46946        1.70481
C         10.38519        1.37844        3.41549
C         11.73685        1.49062        3.75466
C         12.12750        1.46116        5.10237
C         13.58823        1.55856        5.47859
F         14.40873        0.97499        4.56233
F         14.00713        2.84614        5.59941
F         13.87001        0.95539        6.66658
C         11.13611        1.37982        6.09725
C          9.77072        1.31141        5.76619
C          8.72638        1.26348        6.85906
F          8.97556        2.16934        7.84694
F          7.46455        1.53104        6.42546
F          8.66821        0.05296        7.47771
C          9.40556        1.29426        4.41259
O         10.90099        2.20066        0.98509
O          8.50291        1.91056        1.70264
H          7.85563       -5.16065        6.01518
H          9.12797       -4.59259        7.24954
H          9.13334       -7.30851        6.31144
H          9.85699       -6.00677        8.91849
H         10.97938       -6.46970        7.66190
H         10.07869       -7.69432        8.52338
H          7.41542       -6.19977        8.56201
H          7.63701       -7.89906        8.22085
H          6.79570       -6.88078        7.07700
H          9.53781       -6.18698        2.47253
H          9.22508       -7.31080        3.77341
H         10.47401       -7.65667        2.60140
H         11.81266       -4.89301        2.47571
H         12.61839       -6.43618        2.62566
H         12.92600       -5.17293        3.79298
H         10.86988       -7.58295        5.63516
H         12.38576       -6.71451        5.60362
H         12.07816       -7.97776        4.43630
H         13.08845       -4.73946        5.89986
H         12.18181       -4.70781        7.39320
H         13.31823       -3.43013        7.03384
H         12.56619       -3.03179        4.07719
H         12.80354       -1.74788        5.23835
H         11.30474       -1.85309        4.34640
H         10.38391       -3.01303        7.74199
H         10.02533       -1.84273        6.49504
H         11.52413       -1.73751        7.38700
H          7.74596       -2.77967        6.38527
H          5.90988       -1.19311        6.38118
H          5.17280       -0.17137        4.32733
H          6.27952       -0.70173        2.23693
H          7.55370       -2.33643        0.18985
H          9.30256       -2.69118        0.13127
H          7.95374       -0.09567        0.60551
H         11.32675       -1.71711        1.02382
H         12.02206       -0.14030        1.41720
H         10.61356       -0.03904       -2.54971
H          8.42541       -0.30200       -1.76363
H         10.08194       -4.00678        2.10899
H         12.44761        1.59514        3.01377
H         11.41641        1.37014        7.09040
H          8.41037        1.21925        4.14993
