62
*****
C          5.72545      -10.26683        1.09757
Si         6.13736       -8.48233        0.64736
C          5.16704       -7.33555        1.76283
C          7.97874       -8.25375        0.97202
N          5.79889       -8.22208       -1.04257
C          6.38460       -8.86814       -2.11397
C          7.33314       -9.90751       -2.20440
C          7.73852      -10.34341       -3.46911
C          7.22189       -9.76644       -4.62081
C          6.28251       -8.73608       -4.53329
C          5.85060       -8.27578       -3.26928
C          4.92235       -7.26417       -2.85869
C          4.12982       -6.36057       -3.75766
C          4.08217       -4.88026       -3.31493
N          5.44712       -4.31647       -3.15174
C          6.13947       -3.93719       -4.40074
C          5.29471       -3.01814       -5.25155
C          3.82391       -3.18449       -5.18491
C          3.30074       -4.05276       -4.30871
O          5.77010       -2.18237       -6.01517
C          4.88871       -7.29692       -1.47770
S          5.78860       -3.42446       -1.75745
C          4.99753       -1.85445       -2.07315
C          3.66590       -1.66346       -1.68960
C          3.03118       -0.43704       -1.93749
C          1.58731       -0.23725       -1.53634
F          0.81530       -1.32036       -1.83131
F          1.44413       -0.02224       -0.20201
F          0.99781        0.81997       -2.15818
C          3.76763        0.59893       -2.53861
C          5.11784        0.42504       -2.89718
C          5.88117        1.56581       -3.53459
F          5.86910        2.68553       -2.75993
F          7.19115        1.28455       -3.76747
F          5.35119        1.93436       -4.73215
C          5.73000       -0.81318       -2.65403
O          5.09654       -4.02217       -0.63547
O          7.21266       -3.17638       -1.70778
H          5.93220      -10.42985        2.13467
H          6.32137      -10.93045        0.50648
H          4.68908      -10.45264        0.90698
H          5.41318       -7.53876        2.78412
H          4.11953       -7.49179        1.61052
H          5.41354       -6.32029        1.53176
H          8.18049       -8.41464        2.01043
H          8.26770       -7.25940        0.70243
H          8.53398       -8.95735        0.38761
H          7.72154      -10.33911       -1.35123
H          8.43118      -11.10440       -3.54752
H          7.53320      -10.10018       -5.54641
H          5.90336       -8.31037       -5.39354
H          3.12572       -6.72821       -3.79682
H          4.62329       -6.37399       -4.70698
H          3.59014       -4.84555       -2.36541
H          6.35751       -4.82351       -4.95913
H          7.03762       -3.41763       -4.13943
H          3.20871       -2.63718       -5.80701
H          2.27500       -4.16617       -4.31299
H          4.27984       -6.72084       -0.87567
H          3.14957       -2.42585       -1.22357
H          3.30900        1.50531       -2.72069
H          6.72107       -0.95642       -2.90362
