85
*****
Si         9.85076       -4.14125        4.89385
C         11.53245       -4.75821        4.19917
C         11.52048       -5.67083        2.95081
C         12.86740       -5.56642        2.22601
C         11.25010       -7.13767        3.28934
C         10.19396       -2.97908        6.38669
C         10.63902       -1.51363        6.21380
C         11.91648       -1.34160        5.39410
C          9.53589       -0.58864        5.70011
C          8.83143       -5.63174        5.59065
C          9.55236       -6.64002        6.51067
C          9.61314       -6.16445        7.96492
C          8.82296       -7.98841        6.46481
N          8.91949       -3.28867        3.68859
C          7.57542       -2.97485        3.73935
C          6.60324       -3.06882        4.75547
C          5.28489       -2.70617        4.46415
C          4.93247       -2.25704        3.19909
C          5.90014       -2.13648        2.19933
C          7.24330       -2.47863        2.46850
C          8.44337       -2.41696        1.68937
C          8.56908       -1.93322        0.27059
C          9.50954       -2.79054       -0.61081
N          9.26375       -4.23455       -0.66628
C         10.35121       -5.00314       -1.27351
C         10.62805       -4.45924       -2.67770
C         10.12751       -3.09466       -3.01698
C          9.61506       -2.32222       -2.04460
O         11.32352       -5.05956       -3.49493
C          9.46494       -2.85912        2.50800
O          6.95990       -4.04029       -0.74581
C          7.96742       -4.73216       -0.72368
O          7.95270       -6.08983       -0.74570
C          6.70406       -6.82724       -0.72244
C          5.86878       -6.55236       -1.97729
C          7.12863       -8.30395       -0.73066
C          5.92006       -6.55111        0.56578
H         12.01911       -5.30020        4.98295
H         12.02450       -3.86705        3.86960
H         10.72149       -5.33211        2.32489
H         13.64776       -5.91047        2.87220
H         13.04999       -4.54681        1.95778
H         12.84449       -6.16911        1.34219
H         12.03330       -7.50917        3.91662
H         11.21370       -7.71117        2.38674
H         10.31413       -7.21885        3.80147
H         10.95910       -3.45530        6.96347
H          9.21459       -2.86198        6.80145
H         10.86790       -1.20740        7.21317
H         11.73356       -1.63756        4.38225
H         12.69158       -1.95121        5.80944
H         12.21914       -0.31554        5.41644
H          9.27747       -0.86351        4.69882
H          9.88373        0.42315        5.71373
H          8.67424       -0.67805        6.32817
H          8.45603       -6.17956        4.75167
H          8.09386       -5.17846        6.21948
H         10.55566       -6.73402        6.15086
H          8.61953       -6.06243        8.34863
H         10.11188       -5.21889        8.01040
H         10.15048       -6.87971        8.55192
H          7.82434       -7.86629        6.82914
H          9.34207       -8.69574        7.07728
H          8.79361       -8.34392        5.45602
H          6.86025       -3.39973        5.69859
H          4.56407       -2.77334        5.19962
H          3.95095       -2.01105        2.99629
H          5.63301       -1.79672        1.26219
H          8.94681       -0.93229        0.28949
H          7.59391       -2.00000       -0.16472
H         10.42083       -2.63350       -0.07249
H         10.06908       -6.03327       -1.33779
H         11.23269       -4.91525       -0.67337
H         10.17457       -2.74829       -3.98798
H          9.28157       -1.37558       -2.28477
H         10.46912       -2.86473        2.27006
H          6.45523       -6.75823       -2.84827
H          5.56524       -5.52635       -1.98601
H          5.00260       -7.18054       -1.97386
H          7.67769       -8.51223       -1.62512
H          6.25844       -8.92547       -0.69344
H          7.74541       -8.50248        0.12085
H          5.61714       -5.52508        0.58596
H          6.54142       -6.75627        1.41237
H          5.05445       -7.17926        0.59809
