67
*****
C         10.41010       -2.72393       -8.51094
Si        10.26161       -0.86769       -8.89464
C         11.92986       -0.07808       -8.46954
C         10.05990       -0.69633      -11.00503
C          8.65385       -1.15871      -11.44615
C         10.45123        0.75750      -11.49102
C         10.49652        0.88160      -13.02476
C          9.55834        1.88924      -10.96693
C         11.08119       -1.73036      -11.58261
N          8.99324       -0.20021       -7.90034
C          8.98644       -0.19023       -6.51216
C          9.90439       -0.64849       -5.54270
C          9.60172       -0.48298       -4.18774
C          8.41677        0.11947       -3.79138
C          7.50308        0.56868       -4.74630
C          7.78224        0.41715       -6.12165
C          7.06260        0.75928       -7.30518
C          5.71962        1.42074       -7.39550
C          4.53936        0.49994       -7.00642
N          3.25034        1.20055       -7.09447
C          2.59130        1.30784       -8.39623
C          2.68159        0.05511       -9.24895
C          3.63193       -0.99893       -8.84168
C          4.47543       -0.76322       -7.83047
O          2.05011       -0.08226      -10.29485
C          7.84028        0.35777       -8.37352
C          2.80058        2.04483       -6.09483
O          3.58655        2.01949       -4.98442
C          3.17664        2.88301       -3.89790
C          3.97577        4.19775       -3.83100
Cl         3.80277        5.18225       -5.31223
Cl         3.40497        5.16678       -2.43164
Cl         5.71994        3.84966       -3.58670
O          1.80649        2.75189       -6.19386
H         11.18473       -3.15164       -9.11254
H          9.48117       -3.20848       -8.72818
H         10.64799       -2.85633       -7.47615
H         12.69276       -0.50063       -9.08949
H         12.16134       -0.26496       -7.44173
H         11.87794        0.97742       -8.63725
H          7.91999       -0.47640      -11.07092
H          8.46225       -2.13739      -11.05835
H          8.60521       -1.18268      -12.51477
H         11.42623        0.87996      -11.06760
H          9.51105        0.75548      -13.42205
H         11.14156        0.12738      -13.42473
H         10.86844        1.84821      -13.29355
H          8.57561        1.78755      -11.37777
H          9.97071        2.83273      -11.25792
H          9.50585        1.83692       -9.89950
H         10.81716       -2.71394      -11.25433
H         12.06513       -1.49110      -11.23689
H         11.06002       -1.69352      -12.65176
H         10.78696       -1.09958       -5.83012
H         10.26879       -0.81343       -3.47300
H          8.20999        0.23598       -2.78704
H          6.62122        1.01271       -4.44599
H          5.57284        1.74872       -8.40336
H          5.72495        2.23064       -6.69626
H          4.72462        0.22110       -5.99014
H          3.04436        2.11333       -8.93551
H          1.55198        1.47013       -8.20032
H          3.64531       -1.90716       -9.33153
H          5.14315       -1.51312       -7.59208
H          7.59024        0.46259       -9.36927
H          3.31104        2.35645       -2.97618
H          2.15261        3.14251       -4.06795
