70
*****
C          0.37601       -1.87888       11.33021
Si         0.74535       -3.57052       10.58798
C          0.49019       -4.83601       11.95947
C         -0.46971       -3.90923        9.20427
N          2.40124       -3.62093       10.04637
C          3.53051       -3.40199       10.81166
C          3.71951       -3.10419       12.17674
C          5.02188       -2.94632       12.65926
C          6.11568       -3.08283       11.81603
C          5.93055       -3.37668       10.46324
C          4.62663       -3.53304        9.94392
C          4.11937       -3.81252        8.63539
C          4.90562       -4.01516        7.37281
C          5.21974       -2.72322        6.57288
N          4.03999       -1.95248        6.17258
C          3.56320       -0.84940        7.00967
C          4.63302       -0.09550        7.77538
C          6.00210       -0.64301        7.79201
C          6.23757       -1.84121        7.24675
O          4.39265        0.93770        8.39830
C          2.74403       -3.89106        8.74994
C          3.22416       -2.49665        5.19383
O          2.06082       -1.80939        5.04300
C          1.17990       -2.33438        4.03228
C         -0.06946       -1.45206        3.94923
C         -1.19127       -2.09977        3.14533
C         -1.85004       -3.29518        3.39271
C         -2.86160       -3.68429        2.51249
C         -3.20425       -2.88186        1.41197
C         -2.54360       -1.67286        1.17354
C         -1.53940       -1.28550        2.04568
C         -0.70696       -0.10178        2.05492
C          0.16833       -0.16553        3.16104
C          1.07155        0.85378        3.42263
C          1.10394        1.94564        2.55323
C          0.24042        2.00911        1.44756
C         -0.67401        0.98240        1.19302
O          3.50954       -3.49663        4.54594
H         -0.64074       -1.84936       11.66224
H          0.53136       -1.12269       10.58930
H          1.02763       -1.70378       12.16064
H         -0.52685       -4.80324       12.29030
H          1.13939       -4.60930       12.77925
H          0.71308       -5.81439       11.58800
H         -1.46776       -3.86684        9.58768
H         -0.28494       -4.88144        8.79738
H         -0.35080       -3.17297        8.43701
H          2.90999       -3.00446       12.80901
H          5.17208       -2.72525       13.65605
H          7.07036       -2.96666       12.19036
H          6.74815       -3.47975        9.84199
H          4.34716       -4.67004        6.73709
H          5.85166       -4.41405        7.67412
H          5.65562       -3.08985        5.66707
H          2.87158       -1.25115        7.72041
H          3.13024       -0.13873        6.33707
H          6.77207       -0.10607        8.22081
H          7.20631       -2.19406        7.29194
H          2.08696       -4.11555        7.98647
H          0.89635       -3.33390        4.28809
H          1.67997       -2.34129        3.08635
H         -0.31433       -1.28718        4.97770
H         -1.59942       -3.88065        4.20477
H         -3.36332       -4.57183        2.67243
H         -3.95299       -3.18839        0.77130
H         -2.79827       -1.08254        0.36626
H          1.70261        0.80648        4.23783
H          1.77008        2.71491        2.72503
H          0.28127        2.82358        0.81511
H         -1.30987        1.03111        0.38164
