67
*****
Si        10.15323       -3.99526        5.17087
C         10.21099       -3.22925        6.97417
C         11.25499       -3.85343        7.90892
C         10.42322       -1.70509        6.97235
C          9.23493       -5.78797        5.22921
C          9.54025       -6.59482        6.49415
C          7.71716       -5.71063        5.03555
C         11.97115       -4.33052        4.45476
C         12.86117       -3.08187        4.49147
C         12.70124       -5.51730        5.09085
N          9.23619       -2.97454        4.06591
C          8.02809       -2.33966        4.30450
C          7.17589       -2.27933        5.42684
C          5.99684       -1.53248        5.34927
C          5.65798       -0.85743        4.18636
C          6.49270       -0.91998        3.06902
C          7.68997       -1.66891        3.11703
C          8.71539       -1.93061        2.15602
C          8.77325       -1.43742        0.73844
C          8.98609       -2.55630       -0.30561
N          7.93074       -3.60815       -0.18828
C          6.63256       -3.24738       -0.80960
C          6.75853       -2.73115       -2.22282
C          8.03543       -2.09252       -2.60971
C          9.02091       -2.00115       -1.70741
O          5.82097       -2.73763       -3.01712
C          9.64790       -2.73476        2.78151
O          9.74491       -5.33319        0.25297
S          8.46781       -5.21644       -0.43364
C          7.20558       -6.29149        0.43562
F          6.01988       -6.33407       -0.23671
F          7.63135       -7.57947        0.56331
F          6.92561       -5.83821        1.68930
O          8.41895       -5.42863       -1.87014
H          9.24063       -3.46631        7.35771
H         12.23678       -3.63040        7.54664
H         11.11823       -4.91424        7.93864
H         11.13816       -3.45103        8.89346
H         11.39597       -1.48089        6.58712
H         10.34084       -1.33231        7.97193
H          9.68043       -1.24229        6.35674
H          9.65423       -6.30424        4.39103
H          9.12817       -6.09366        7.34499
H         10.59983       -6.68556        6.61224
H          9.10611       -7.56909        6.40921
H          7.27752       -5.19684        5.86480
H          7.31445       -6.70010        4.97489
H          7.49946       -5.18092        4.13172
H         11.79269       -4.59630        3.43377
H         13.04686       -2.80600        5.50848
H         12.36748       -2.27705        3.98805
H         13.79006       -3.29150        4.00348
H         12.90464       -5.30146        6.11893
H         13.62203       -5.68851        4.57342
H         12.08708       -6.39098        5.02457
H          7.42001       -2.78074        6.29518
H          5.37052       -1.48286        6.16798
H          4.78593       -0.30700        4.14670
H          6.23449       -0.41766        2.20530
H          9.58220       -0.74188        0.65650
H          7.82436       -0.99089        0.52603
H          9.93568       -3.00580       -0.10284
H          6.17170       -2.48839       -0.21258
H          6.04809       -4.14251       -0.85470
H          8.16543       -1.72163       -3.56395
H          9.87967       -1.50741       -1.99684
H         10.51366       -3.09607        2.35145
