79
*****
Si        10.11519       -3.94540        5.20433
C         10.70487       -3.12424        6.87045
C          9.68532       -3.01707        8.02266
C          9.76335       -4.22718        8.95901
C          9.94366       -1.74305        8.83458
C          8.91135       -5.38654        5.67516
C          8.08492       -6.07495        4.57162
C          8.85893       -7.19320        3.87071
C          6.80961       -6.67069        5.18276
C         11.66613       -4.68681        4.36065
C         12.64736       -3.71587        3.66899
C         13.52962       -2.95818        4.66410
C         13.54263       -4.49763        2.70066
N          9.26490       -2.79179        4.20581
C          9.04087       -2.85421        2.84160
C          9.37016       -3.80267        1.85197
C          8.99069       -3.56356        0.52753
C          8.29631       -2.41328        0.18155
C          7.96224       -1.47305        1.15760
C          8.33411       -1.68876        2.50283
C          8.14179       -0.92910        3.69702
C          7.44949        0.39452        3.81799
C          8.28224        1.57961        3.27390
N          7.49965        2.81898        3.23387
C          7.38233        3.62857        4.44810
C          8.64605        3.69297        5.28790
C          9.75077        2.76914        4.96382
C          9.55228        1.80812        4.05482
O          8.75489        4.44026        6.25823
C          8.71326       -1.65008        4.72589
C          6.62377        2.98525        2.17481
O          5.82737        4.07583        2.32223
C          4.91316        4.36221        1.23942
C          5.41417        5.49064        0.32029
Cl         6.93763        5.06017       -0.50988
Cl         4.16786        5.83593       -0.92543
Cl         5.68480        6.99142        1.26767
O          6.55938        2.23032        1.21346
H         11.02953       -2.13133        6.63888
H         11.46100       -3.78400        7.24180
H          8.70898       -2.98590        7.58599
H         10.73544       -4.27179        9.40392
H          9.58526       -5.12234        8.40055
H          9.02383       -4.13255        9.72651
H         10.92213       -1.78691        9.26534
H          9.21438       -1.66243        9.61339
H          9.87481       -0.89039        8.19183
H          8.21498       -4.99125        6.38489
H          9.56653       -6.15979        6.01827
H          7.85034       -5.32784        3.84244
H          9.10607       -7.95493        4.58036
H          9.75740       -6.79441        3.44808
H          8.25462       -7.61233        3.09351
H          7.07408       -7.41298        5.90661
H          6.22011       -7.11942        4.41073
H          6.24541       -5.89505        5.65706
H         11.32511       -5.37756        3.61803
H         12.23104       -5.11121        5.16418
H         12.05783       -2.99281        3.14503
H         14.13431       -3.65445        5.20673
H         12.91099       -2.41479        5.34742
H         14.16031       -2.27560        4.13380
H         14.12077       -5.21269        3.24778
H         14.19874       -3.81997        2.19548
H         12.93322       -5.00586        1.98286
H          9.88436       -4.66191        2.10163
H          9.23044       -4.25223       -0.20273
H          8.02577       -2.25223       -0.80125
H          7.44342       -0.62011        0.89618
H          7.24060        0.57404        4.85193
H          6.55903        0.33866        3.22734
H          8.55470        1.30612        2.27597
H          6.60125        3.21491        5.05117
H          7.17907        4.62906        4.12776
H         10.66515        2.86355        5.43287
H         10.33860        1.16542        3.87136
H          8.72346       -1.37537        5.72060
H          3.97083        4.65243        1.65499
H          4.82837        3.47607        0.64573
