88
*****
Si        10.23086       -4.23227        4.67226
C         11.09439       -3.16777        6.13013
C         11.44328       -3.97070        7.38370
C         12.31180       -2.38705        5.61775
C          8.83172       -5.35099        5.50901
C          7.69941       -5.70676        4.53177
C          9.35526       -6.63602        6.16010
C         11.54597       -5.29872        3.71526
C         12.54561       -6.04967        4.60327
C         10.92658       -6.28821        2.71688
N          9.45384       -3.04512        3.62889
C          8.48352       -2.13312        4.00598
C          7.82548       -1.87784        5.22751
C          6.88564       -0.84523        5.29020
C          6.60027       -0.07481        4.17292
C          7.24269       -0.33090        2.96006
C          8.18624       -1.37824        2.86121
C          8.96162       -1.89992        1.77580
C          8.93528       -1.44413        0.34375
C          7.82262       -2.07171       -0.53688
N          8.03563       -3.48311       -0.86590
C          7.51967       -4.52140        0.02893
C          6.20401       -4.18329        0.70719
C          5.66294       -2.81822        0.54936
C          6.42312       -1.87279       -0.01601
O          5.58805       -4.99942        1.39117
C          9.77202       -2.88530        2.30683
C          8.88293       -3.78623       -1.91646
O          9.02410       -5.12516       -2.10827
C          9.72866       -5.50821       -3.30702
C         11.24811       -5.47130       -3.10861
C         11.99915       -5.50601       -4.43473
C         11.95397       -4.58403       -5.47004
C         12.73269       -4.82792       -6.60249
C         13.54341       -5.97219       -6.68335
C         13.59490       -6.89064       -5.62969
C         12.82272       -6.64991       -4.50509
C         12.68228       -7.40455       -3.27825
C         11.76732       -6.73904       -2.43271
C         11.44630       -7.24118       -1.18097
C         12.04893       -8.43363       -0.77613
C         12.95652       -9.10119       -1.61518
C         13.27948       -8.58744       -2.87502
O          9.43012       -2.94248       -2.61706
H         10.34382       -2.47041        6.43874
H         12.19524       -4.69393        7.14621
H         10.56787       -4.47087        7.74201
H         11.81089       -3.30920        8.14013
H         13.07049       -3.07400        5.30569
H         12.69313       -1.76638        6.40149
H         12.02076       -1.77633        4.78877
H          8.44632       -4.72988        6.29042
H          8.08472       -6.32786        3.75032
H          7.29803       -4.80948        4.10906
H          6.92743       -6.23053        5.05580
H          9.74977       -7.28332        5.40494
H          8.55434       -7.12941        6.66998
H         10.12717       -6.39239        6.85989
H         12.09161       -4.55150        3.17783
H         12.03165       -6.80734        5.15706
H         13.00623       -5.36246        5.28185
H         13.29644       -6.50318        3.99049
H         10.37972       -7.03757        3.25009
H         11.70353       -6.75218        2.14594
H         10.26502       -5.76415        2.05916
H          8.03519       -2.44575        6.06330
H          6.39784       -0.65365        6.17923
H          5.91079        0.69030        4.23822
H          7.02763        0.24694        2.13249
H          9.87994       -1.68617       -0.09661
H          8.72930       -0.39456        0.37339
H          7.91006       -1.50975       -1.44323
H          8.25063       -4.69768        0.79020
H          7.33082       -5.37872       -0.58281
H          4.70823       -2.59554        0.87178
H          6.01641       -0.92825       -0.10237
H         10.49556       -3.41223        1.79315
H          9.46541       -4.83329       -4.09448
H          9.44879       -6.51150       -3.55192
H         11.40977       -4.57847       -2.54148
H         11.36140       -3.74162       -5.40490
H         12.71259       -4.16016       -7.38908
H         14.10831       -6.13733       -7.53108
H         14.19447       -7.72852       -5.68875
H         10.78073       -6.74748       -0.56590
H         11.82503       -8.82932        0.15033
H         13.39050       -9.98205       -1.29774
H         13.94724       -9.07822       -3.49004
