72
*****
C          8.56867       -0.73807        8.70423
Si         9.48105       -2.05860        7.71781
C         11.26466       -1.44738        7.40767
C         11.96406       -1.82369        6.24509
C         13.26785       -1.37699        6.01961
C         13.89557       -0.55226        6.94882
C         13.22276       -0.17654        8.10851
C         11.91858       -0.62138        8.34030
C          9.70245       -3.65288        8.72722
C          8.94575       -3.88964        9.88934
C          9.10088       -5.07507       10.61333
C         10.00953       -6.04173       10.19018
C         10.76532       -5.82646        9.04150
C         10.61386       -4.64412        8.31368
N          8.60874       -2.32626        6.23225
C          8.49495       -1.44682        5.17279
C          8.97808       -0.13918        4.96178
C          8.71423        0.48436        3.73920
C          7.99125       -0.16590        2.74808
C          7.51011       -1.46036        2.95848
C          7.75665       -2.11553        4.18427
C          7.42186       -3.41409        4.68708
C          6.67446       -4.50013        3.96820
C          7.56060       -5.64267        3.40575
N          8.54767       -5.21034        2.41007
C          9.87838       -4.78593        2.84402
C         10.41052       -5.47803        4.08653
C          9.52400       -6.41764        4.80193
C          8.22640       -6.46488        4.47978
O         11.53871       -5.27021        4.53153
C          7.91884       -3.48099        5.97439
O          8.93262       -4.34708        0.31195
C          8.17366       -4.86413        1.12057
O          6.87446       -5.16620        0.86432
C          6.28438       -4.90512       -0.43541
C          6.97762       -5.71516       -1.53615
C          4.83410       -5.39595       -0.30560
C          6.26466       -3.40558       -0.75008
H          9.08725       -0.55684        9.62245
H          7.57508       -1.07394        8.91603
H          8.52550        0.16657        8.13444
H         11.50790       -2.43676        5.55148
H         13.76732       -1.65910        5.16173
H         14.85766       -0.21997        6.77853
H         13.68882        0.43246        8.79911
H         11.42972       -0.34104        9.20486
H          8.26868       -3.18023       10.21078
H          8.53989       -5.23458       11.46473
H         10.12226       -6.91580       10.72713
H         11.43912       -6.54203        8.72687
H         11.17697       -4.49473        7.46185
H          9.51591        0.34789        5.69563
H          9.06159        1.44143        3.57072
H          7.80828        0.30986        1.85075
H          6.97401       -1.93802        2.21721
H          6.14743       -4.05518        3.15017
H          6.02961       -4.95061        4.69355
H          6.85987       -6.26923        2.89456
H          9.84137       -3.73504        3.04193
H         10.54546       -5.05120        2.05058
H          9.90095       -7.03061        5.54166
H          7.63108       -7.11923        5.01123
H          7.79181       -4.26751        6.63034
H          6.96802       -6.75279       -1.27514
H          7.98939       -5.38286       -1.64004
H          6.45949       -5.57543       -2.46185
H          4.83029       -6.44307       -0.08555
H          4.31532       -5.22288       -1.22528
H          4.34678       -4.86370        0.48441
H          7.26863       -3.04757       -0.84377
H          5.77152       -2.88144        0.04175
H          5.74006       -3.24062       -1.66795
