86
*****
Si        10.04799       -3.99307        5.15851
C         11.70794       -4.77120        4.65558
C         12.80055       -3.98032        3.90728
C         13.43570       -2.86726        4.73439
C         13.89741       -4.95076        3.44808
C         10.08857       -3.13556        6.86988
C         10.88828       -1.84107        7.09494
C         10.38997       -0.65394        6.27104
C         10.84437       -1.46954        8.58343
C          8.79713       -5.54197        5.48216
C          9.40685       -6.84999        6.01692
C          9.87821       -6.74486        7.46757
C          8.36365       -7.96807        5.90732
N          9.22594       -3.09437        3.90624
C          8.07889       -2.33001        4.03550
C          7.19163       -2.09530        5.10509
C          6.13175       -1.20165        4.92375
C          5.94265       -0.55715        3.70968
C          6.80126       -0.80966        2.63784
C          7.87286       -1.71727        2.78873
C          8.86328       -2.21751        1.88808
C          9.04345       -1.84967        0.44677
C         10.12499       -0.76411        0.24586
N         11.48798       -1.34372        0.39336
C         12.03864       -2.02319       -0.79818
C         11.93922       -1.18646       -2.04839
C         10.80525       -0.24244       -2.14748
C          9.98439       -0.09371       -1.10008
O         12.71165       -1.30129       -2.99631
C          9.61640       -3.13300        2.59516
S         12.57677       -0.55959        1.42453
C         13.00913        0.91350        0.52069
C         12.30716        2.09920        0.75468
C         12.65702        3.25606        0.05569
C         13.71216        3.23954       -0.87247
C         14.09599        4.50205       -1.60891
F         13.01511        5.25247       -1.96303
F         14.88931        5.31672       -0.86165
F         14.77807        4.26677       -2.76369
C         14.42879        2.04752       -1.06906
C         14.08527        0.88826       -0.37038
O         11.86742       -0.14091        2.61374
O         13.77228       -1.36961        1.52175
H         11.46763       -5.60776        4.03323
H         12.16955       -4.93743        5.60646
H         12.31879       -3.50704        3.07733
H         13.93306       -3.29172        5.58137
H         12.67519       -2.19276        5.06842
H         14.14440       -2.33648        4.13363
H         14.35452       -5.40290        4.30337
H         14.63667       -4.41518        2.88991
H         13.46571       -5.71072        2.83084
H         10.47628       -3.85520        7.56031
H          9.07705       -2.80799        6.99001
H         11.88742       -2.04345        6.76991
H          9.38889       -0.41296        6.56202
H         10.40790       -0.90837        5.23188
H         11.02430        0.19054        6.44246
H          9.83284       -1.27445        8.87266
H         11.43805       -0.59515        8.75045
H         11.23161       -2.27999        9.16491
H          8.32003       -5.76811        4.55150
H          8.14561       -5.20693        6.26201
H         10.27011       -7.06274        5.42159
H          9.04170       -6.53180        8.09984
H         10.59881       -5.95845        7.55235
H         10.32398       -7.67076        7.76574
H          7.51549       -7.72510        6.51269
H          8.79101       -8.88898        6.24526
H          8.05639       -8.07048        4.88752
H          7.32234       -2.57600        6.00889
H          5.48110       -1.01889        5.70367
H          5.16443        0.11144        3.59839
H          6.65272       -0.33278        1.73476
H          8.11305       -1.48200        0.06719
H          9.36135       -2.72727       -0.07634
H          9.98438       -0.02225        1.00400
H         11.49792       -2.93351       -0.95260
H         13.07712       -2.20355       -0.61399
H         10.64833        0.29561       -3.01403
H          9.17891        0.53936       -1.22442
H         10.34975       -3.74327        2.20174
H         11.53540        2.11947        1.43951
H         12.13609        4.13125        0.22212
H         15.21625        2.02831       -1.73582
H         14.62265        0.01854       -0.51120
