93
*****
Si         9.31316        4.49016        6.94735
C          9.22042        3.12004        8.36555
C         10.17516        3.06555        9.39828
C         10.08927        2.09061       10.39419
C          9.04972        1.16398       10.37907
C          8.08889        1.21332        9.37195
C          8.16588        2.18711        8.37391
C         11.22780        4.49463        6.52009
C         12.01700        3.33512        6.65316
C         13.37243        3.34603        6.31436
C         13.96117        4.50629        5.82181
C         13.19214        5.65409        5.65566
C         11.83548        5.64812        5.99265
C          8.75623        6.21743        7.83612
C          9.66626        6.50575        9.06346
C          8.88084        7.43777        6.89544
C          7.31185        6.08030        8.38238
N          8.48858        3.87838        5.52264
C          7.46929        4.40103        4.74256
C          6.69527        5.57551        4.80221
C          5.71555        5.81355        3.83169
C          5.49061        4.90671        2.80988
C          6.24169        3.73466        2.74236
C          7.23831        3.46885        3.70867
C          8.11425        2.36165        3.90432
C          8.17583        1.08433        3.12277
C          9.59782        0.70274        2.63527
N          9.76471       -0.75287        2.59028
C          9.28889       -1.48749        1.42237
C          9.56344       -0.78968        0.10138
C          9.93415        0.64110        0.12740
C          9.91787        1.30191        1.29100
O          9.40303       -1.34657       -0.98331
C          8.85763        2.64837        5.02742
C          9.93142       -1.37924        3.81892
O          9.60581       -2.70076        3.79039
C          9.51931       -3.31859        5.08963
C          8.45754       -4.42646        5.08945
C          8.39098       -5.11913        6.44855
C          9.38522       -5.82991        7.10411
C          9.09723       -6.35293        8.36657
C          7.83391       -6.16640        8.95151
C          6.83256       -5.45703        8.28212
C          7.11660       -4.93705        7.03003
C          6.28665       -4.18084        6.11788
C          7.03504       -3.88189        4.95971
C          6.46292       -3.20529        3.89327
C          5.13405       -2.79320        4.00453
C          4.39398       -3.06885        5.16487
C          4.96739       -3.77142        6.22919
O         10.27105       -0.78417        4.83487
H         10.94536        3.75211        9.41962
H         10.79806        2.05661       11.14352
H          8.99136        0.44134       11.11351
H          7.31742        0.52791        9.36323
H          7.44437        2.22320        7.63692
H         11.58783        2.46540        7.00590
H         13.93851        2.49090        6.42982
H         14.96453        4.51573        5.58054
H         13.62513        6.51319        5.28214
H         11.27233        6.50150        5.85254
H         10.68053        6.60963        8.73886
H          9.59538        5.69515        9.75830
H          9.34912        7.41090        9.53783
H          9.88543        7.50829        6.53388
H          8.63169        8.32903        7.43254
H          8.21164        7.32069        6.06878
H          7.25433        5.22973        9.02900
H          6.63214        5.95410        7.56570
H          7.05218        6.96244        8.92946
H          6.84997        6.25912        5.55968
H          5.15272        6.67731        3.87826
H          4.76751        5.09848        2.09898
H          6.06929        3.05745        1.98296
H          7.54344        1.18508        2.26555
H          7.85894        0.30489        3.78379
H         10.28667        1.11005        3.34553
H          8.23192       -1.62377        1.51790
H          9.82275       -2.41453        1.40032
H         10.20287        1.12563       -0.74325
H         10.14403        2.30849        1.26501
H          9.58055        2.03510        5.43522
H          9.25467       -2.57761        5.81477
H         10.46841       -3.74951        5.33131
H          8.74307       -5.05839        4.27457
H         10.31173       -5.96840        6.67119
H          9.82151       -6.88298        8.87597
H          7.64263       -6.55790        9.88702
H          5.90330       -5.32381        8.71077
H          7.00655       -3.01106        3.03783
H          4.69122       -2.28071        3.22589
H          3.41511       -2.74924        5.23330
H          4.42022       -3.98046        7.07885
