48
*****
C          1.41595       -3.58912       11.68905
Si         2.32862       -4.70339       10.45845
C          3.83914       -5.35006       11.40715
C          1.23707       -6.13798       10.01292
N          2.90838       -3.71158        9.14676
C          2.67968       -3.83845        7.79045
C          1.91470       -4.73545        7.01833
C          1.88435       -4.58438        5.62819
C          2.59103       -3.56655        5.00604
C          3.35132       -2.67584        5.76478
C          3.40821       -2.80760        7.17030
C          4.09554       -2.07637        8.18957
C          5.01595       -0.90416        8.01008
C          6.50937       -1.26600        7.78872
N          7.11758       -2.03812        8.88297
C          7.13899       -3.50636        8.80652
C          7.23822       -4.09924        7.41230
C          7.11133       -3.19479        6.25608
C          6.77238       -1.91704        6.45709
O          7.40114       -5.30283        7.22088
C          3.72741       -2.63939        9.39527
O          7.21835       -0.13079       10.15664
C          7.36575       -1.35782       10.09072
C          7.83306       -2.18078       11.31706
F          9.05938       -2.74194       11.12224
F          7.92552       -1.44095       12.45574
F          6.98184       -3.20848       11.60044
H          1.05169       -4.18023       12.50318
H          0.59312       -3.11365       11.19735
H          2.08757       -2.84415       12.06167
H          3.51335       -5.96398       12.22071
H          4.40226       -4.52346       11.78732
H          4.45367       -5.92744       10.74845
H          0.95337       -6.66011       10.90275
H          1.76829       -6.80218        9.36366
H          0.36058       -5.77830        9.51564
H          1.38345       -5.49444        7.47301
H          1.32801       -5.23988        5.05737
H          2.55464       -3.46750        3.97945
H          3.87381       -1.91830        5.29770
H          4.94938       -0.29350        8.88619
H          4.69480       -0.40750        7.11840
H          7.00000       -0.31512        7.78614
H          6.23771       -3.87055        9.25367
H          8.03213       -3.80840        9.31247
H          7.28244       -3.54415        5.30021
H          6.68254       -1.32048        5.61979
H          4.01969       -2.30873       10.32814
