76
*****
Si         9.58822       -4.04537        5.27052
C          9.91640       -3.13603        6.90346
C          8.86957       -2.24338        7.59986
C          7.64162       -2.99712        8.09877
C          9.53367       -1.52514        8.78326
C          8.77152       -5.76629        5.50293
C          7.30778       -5.90147        5.95567
C          6.29789       -5.30355        4.97643
C          6.97863       -7.38530        6.16931
C         11.40502       -4.53616        4.54201
C         12.52407       -4.82567        5.55822
C         12.32123       -6.13707        6.31783
C         13.86723       -4.87544        4.82073
N          8.89499       -3.09495        3.97749
C          8.53123       -3.53645        2.71741
C          8.60137       -4.79019        2.07646
C          8.10243       -4.91770        0.77656
C          7.55347       -3.82939        0.11429
C          7.50754       -2.57943        0.73456
C          8.01090       -2.41898        2.04506
C          8.14520       -1.27853        2.90277
C          7.72638        0.12076        2.55293
C          8.25462        1.26583        3.44857
N          9.73542        1.39937        3.37570
C         10.26825        1.97880        2.11646
C          9.52930        3.21019        1.64631
C          8.18434        3.47164        2.20830
C          7.62390        2.56925        3.02409
O          9.98101        3.97696        0.80000
C          8.72821       -1.73907        4.06479
O         11.99067        1.59818        4.50851
S         10.57983        1.75287        4.82045
C         10.21317        3.54592        5.20078
F         10.53442        4.35908        4.15587
F          8.88939        3.74798        5.46062
F         10.90202        3.99680        6.28464
O          9.99527        0.91737        5.85640
H         10.76466       -2.50880        6.72475
H          9.98683       -3.95372        7.59000
H          8.52003       -1.55202        6.86180
H          7.93670       -3.70625        8.84373
H          7.18121       -3.51022        7.28044
H          6.94524       -2.30385        8.52223
H          9.86861       -2.24848        9.49705
H          8.82561       -0.86940        9.24537
H         10.36961       -0.95701        8.43208
H          9.36203       -6.28625        6.22808
H          8.74120       -6.14579        4.50295
H          7.22040       -5.34424        6.86494
H          6.34774       -5.83054        4.04654
H          6.52689       -4.27105        4.81398
H          5.31208       -5.39052        5.38328
H          7.07627       -7.90946        5.24161
H          5.97519       -7.47992        6.52854
H          7.65497       -7.80097        6.88673
H         11.73325       -3.72485        3.92642
H         11.25254       -5.46481        4.03282
H         12.50571       -4.03758        6.28174
H         12.33310       -6.95458        5.62758
H         11.37991       -6.11299        6.82599
H         13.10873       -6.26136        7.03148
H         13.85265       -5.67202        4.10649
H         14.65500       -5.04250        5.52529
H         14.03147       -3.94653        4.31570
H          9.01523       -5.60255        2.56003
H          8.14312       -5.83392        0.30335
H          7.17780       -3.94407       -0.84003
H          7.10515       -1.77107        0.23490
H          6.65742        0.15388        2.58650
H          8.15820        0.30368        1.59118
H          7.99326        1.02898        4.45877
H         10.20429        1.23479        1.35013
H         11.27573        2.27918        2.31559
H          7.68279        4.34238        1.97318
H          6.68385        2.78286        3.39247
H          8.99614       -1.15437        4.87186
