57
*****
C         11.80241        0.33204        5.83300
C         11.48497       -1.15329        5.94247
Si        12.00852       -2.20357        4.42370
C         13.90014       -2.16145        4.25425
C         14.68153       -2.65849        5.46327
C         11.43812       -3.99303        4.80050
C         11.66576       -4.98950        3.67169
N         11.19668       -1.60718        3.00069
C          9.83253       -1.52921        2.79486
C          8.72239       -1.86121        3.59780
C          7.43656       -1.66641        3.08617
C          7.24782       -1.14969        1.81224
C          8.34624       -0.81667        1.01631
C          9.65792       -1.00954        1.50227
C         10.95522       -0.79618        0.93703
C         11.28071       -0.30449       -0.44044
C         11.73074       -1.42733       -1.40983
N         10.67541       -2.41082       -1.69359
C          9.61119       -2.03486       -2.63190
C         10.10591       -1.25890       -3.84439
C         11.49783       -0.76266       -3.83986
C         12.21380       -0.83976       -2.71176
O          9.37592       -0.98812       -4.79533
C         11.87575       -1.15020        1.90426
O         11.54566       -3.87090       -0.14276
C         10.59935       -3.55648       -0.87574
C          9.32563       -4.43317       -0.96075
F          9.27549       -5.13569       -2.12944
F          9.23074       -5.35008        0.04048
F          8.17800       -3.69628       -0.91664
H         11.47621        0.83283        6.72053
H         11.29615        0.74340        4.98483
H         12.85791        0.46357        5.71672
H         10.42806       -1.25896        6.07162
H         12.05116       -1.52149        6.77238
H         14.19128       -1.14881        4.06801
H         14.13708       -2.83409        3.45655
H         14.48539       -2.02222        6.30088
H         15.72828       -2.64420        5.24191
H         14.37991       -3.65826        5.69647
H         10.39047       -3.96938        5.01678
H         12.03290       -4.33065        5.62339
H         11.09078       -4.69834        2.81756
H         11.36229       -5.96484        3.99032
H         12.70415       -5.00548        3.41404
H          8.85699       -2.24176        4.54758
H          6.61655       -1.91007        3.66344
H          6.29112       -1.01076        1.45107
H          8.19889       -0.42896        0.07133
H         12.06995        0.41410       -0.36543
H         10.38356        0.11704       -0.84335
H         12.52570       -1.94176       -0.91152
H          8.90057       -1.42831       -2.11035
H          9.18324       -2.94467       -2.99798
H         11.91251       -0.36178       -4.69564
H         13.17560       -0.46636       -2.73485
H         12.90160       -1.08164        1.81501
