86
*****
Si         9.97488       -3.91834        5.06805
C         11.74772       -4.23105        4.47667
C         12.53929       -3.30862        3.53222
C         12.66616       -1.86566        4.00993
C         13.94557       -3.89108        3.32196
C          9.96351       -3.05499        6.80699
C         10.48479       -1.61343        6.93516
C          9.57678       -0.58437        6.26175
C         10.63316       -1.25541        8.41889
C          9.18374       -5.71238        5.48422
C         10.13391       -6.84123        5.92449
C         10.73591       -6.61300        7.31154
C          9.36540       -8.16828        5.92355
N          8.82663       -3.16695        3.98338
C          7.48353       -2.92677        4.23626
C          6.66689       -3.20630        5.35379
C          5.32322       -2.83600        5.33638
C          4.78318       -2.20213        4.23051
C          5.57936       -1.92244        3.11277
Br         4.70718       -1.08113        1.65007
C          6.95515       -2.28085        3.09622
C          8.03758       -2.14768        2.15762
C          8.05090       -1.48769        0.80898
C          8.14201        0.05305        0.88796
N          9.44042        0.48062        1.47478
C         10.58945        0.53289        0.54930
C         10.28804        1.29641       -0.71567
C          8.89311        1.27759       -1.20749
C          7.94713        0.68149       -0.47060
O         11.15173        1.86838       -1.37561
C          9.14098       -2.75630        2.72368
S          9.39956        1.59450        2.74834
C          8.96911        3.12332        1.93982
C          7.62674        3.50573        1.85875
C          7.28917        4.70998        1.23876
C          8.28676        5.54333        0.70513
C          7.91050        6.85428        0.05447
F          6.78401        6.75796       -0.70616
F          7.66359        7.83319        0.96696
F          8.87527        7.34410       -0.77219
C          9.63277        5.15924        0.82581
C          9.97655        3.95642        1.44719
O          8.29949        1.25582        3.62473
O         10.74339        1.74140        3.26584
H         11.72214       -5.18352        3.98980
H         12.28499       -4.07916        5.38945
H         11.98049       -3.27137        2.62049
H         13.21996       -1.84033        4.92512
H         11.69083       -1.45648        4.17180
H         13.17670       -1.28791        3.26800
H         14.46722       -3.90968        4.25600
H         14.48320       -3.28245        2.62523
H         13.86554       -4.88670        2.93824
H         10.55654       -3.66058        7.46004
H          8.92286       -2.96987        7.04085
H         11.42946       -1.57896        6.43384
H          8.61832       -0.58900        6.73739
H          9.46272       -0.83223        5.22712
H         10.01375        0.38840        6.34940
H          9.67516       -1.29797        8.89359
H         11.03228       -0.26674        8.50905
H         11.29555       -1.95171        8.88931
H          8.67827       -6.04853        4.60308
H          8.56479       -5.53769        6.33937
H         10.94647       -6.86030        5.22859
H          9.95292       -6.58721        8.04034
H         11.26409       -5.68251        7.32242
H         11.41197       -7.40959        7.54241
H          8.56193       -8.11563        6.62822
H         10.02709       -8.96383        6.19588
H          8.97095       -8.35132        4.94589
H          7.06291       -3.68240        6.17933
H          4.72638       -3.03591        6.15421
H          3.78669       -1.93373        4.22972
H          7.15079       -1.74943        0.29303
H          8.92313       -1.83254        0.29401
H          7.35410        0.39045        1.52847
H         10.86301       -0.46784        0.28739
H         11.38419        1.04365        1.05170
H          8.65161        1.71897       -2.10854
H          6.99564        0.64866       -0.86887
H         10.05719       -2.87999        2.26511
H          6.88995        2.90137        2.25486
H          6.29834        4.99066        1.17173
H         10.37452        5.77158        0.45183
H         10.96775        3.68509        1.54170
