85
*****
Si         9.80479       -4.13455        5.03416
C          8.93310       -3.92318        6.74748
C          8.75898       -2.50661        7.33176
C          7.74858       -1.65265        6.56542
C          8.32038       -2.61180        8.79762
C          9.92730       -6.25823        4.77164
C          8.52397       -6.86818        4.98806
C         10.38643       -6.56531        3.33183
C         10.89503       -6.86562        5.80189
C         11.75022       -3.36691        5.21145
C         12.28752       -3.65275        6.63622
C         12.71704       -3.99061        4.18617
C         11.72273       -1.82989        5.01610
N          8.91816       -3.53647        3.64364
C          7.55270       -3.58503        3.40777
C          6.47685       -4.07084        4.18177
C          5.17567       -3.99642        3.69154
C          4.92982       -3.45081        2.44558
C          5.98422       -2.96660        1.65967
Br         5.49015       -2.26038       -0.02935
C          7.32698       -3.02284        2.12671
C          8.61492       -2.63843        1.60939
C          8.99992       -1.97556        0.31476
C          9.77087       -2.89667       -0.66685
N          8.90080       -3.71304       -1.51441
C          8.30397       -3.11688       -2.71209
C          9.24219       -2.20097       -3.47823
C         10.49522       -1.77478       -2.82297
C         10.70213       -2.08972       -1.53937
O          8.96795       -1.75032       -4.58913
C          9.54802       -2.98756        2.56733
O          8.92892       -5.46422       -0.01985
C          8.48294       -4.94420       -1.03326
O          7.53483       -5.50652       -1.82493
C          6.94659       -6.79066       -1.49621
C          6.14584       -6.70993       -0.19236
C          5.97787       -7.07816       -2.65393
C          7.99977       -7.90398       -1.45751
H          9.49962       -4.48745        7.45850
H          7.93033       -4.24909        6.56545
H          9.70758       -2.01913        7.24568
H          6.78089       -2.10531        6.62534
H          8.04636       -1.58186        5.54013
H          7.71134       -0.67315        6.99446
H          7.37100       -3.10239        8.85152
H          8.23919       -1.63072        9.21689
H          9.04494       -3.17566        9.34713
H          7.84106       -6.45308        4.27656
H          8.18674       -6.64452        5.97859
H          8.57246       -7.92924        4.85887
H          9.69698       -6.13219        2.63759
H         10.42050       -7.62487        3.18666
H         11.36037       -6.15195        3.17221
H         10.55319       -6.63780        6.78989
H         11.87240       -6.45428        5.65894
H         10.93254       -7.92721        5.67339
H         12.31792       -4.70962        6.80056
H         11.64241       -3.19789        7.35860
H         13.27329       -3.24817        6.73349
H         12.73949       -5.05233        4.31711
H         13.69908       -3.59220        4.33375
H         12.38384       -3.76035        3.19579
H         11.05251       -1.39206        5.72603
H         11.39073       -1.60224        4.02471
H         12.70597       -1.43408        5.16267
H          6.65478       -4.48147        5.11169
H          4.39121       -4.35028        4.26113
H          3.96193       -3.39962        2.09119
H          9.61927       -1.13276        0.54055
H          8.08802       -1.70120       -0.17316
H         10.32992       -3.56842       -0.04950
H          7.44764       -2.54865       -2.41424
H          8.05432       -3.92411       -3.36856
H         11.20346       -1.23987       -3.34954
H         11.57590       -1.75102       -1.10713
H         10.56750       -2.85289        2.48053
H          5.42538       -5.92212       -0.26447
H          6.81033       -6.51208        0.62262
H          5.64262       -7.63922       -0.02473
H          5.23448       -6.30973       -2.69614
H          5.50410       -8.02446       -2.49592
H          6.52051       -7.10049       -3.57585
H          8.68413       -7.71984       -0.65586
H          8.53334       -7.92259       -2.38479
H          7.51692       -8.84656       -1.30486
