71
*****
C          1.47875      -11.11558        5.23044
Si         0.50712       -9.70508        6.01555
C         -1.24349       -9.76589        5.33112
C          0.34751      -10.13118        8.12895
C          0.00236      -11.63450        8.25289
C          1.68185       -9.72041        8.87094
C          1.51075       -9.64343       10.39889
C          2.88122      -10.63509        8.59165
C         -0.85765       -9.30472        8.65191
N          1.29291       -8.15630        5.84878
C          0.73845       -6.89696        5.97366
C         -0.56569       -6.47899        6.31291
C         -0.86904       -5.12234        6.35351
C          0.10079       -4.18217        6.05891
C          1.40635       -4.57653        5.72251
I          2.71439       -2.99177        5.30620
C          1.75837       -5.95823        5.68019
C          2.95681       -6.72555        5.41113
C          4.34092       -6.26496        5.04141
C          5.38878       -6.23408        6.17860
N          5.02628       -5.28399        7.26088
C          4.25911       -5.83472        8.40122
C          4.81035       -7.13212        8.93192
C          5.52531       -8.01193        7.98497
C          5.74161       -7.59085        6.73369
O          4.63842       -7.51146       10.08824
C          2.61250       -8.06144        5.51641
O          5.50551       -3.13041        8.55047
S          6.11568       -4.02907        7.59460
C          7.45352       -4.86183        8.42447
C          8.57187       -5.27666        7.69406
C          9.62203       -5.91830        8.35041
C          9.55851       -6.13068        9.72842
C          8.45221       -5.69187       10.45757
C          7.40007       -5.04537        9.80956
O          6.62780       -3.53609        6.33258
H          0.94671      -12.03397        5.36603
H          2.43998      -11.18833        5.69479
H          1.60133      -10.92545        4.18462
H         -1.64837      -10.74600        5.47378
H         -1.22616       -9.53575        4.28631
H         -1.85197       -9.05052        5.84386
H          0.82401      -12.21969        7.89603
H         -0.86863      -11.84972        7.66985
H         -0.18695      -11.87360        9.27851
H          1.88960       -8.75379        8.46181
H          1.30422      -10.62000       10.78431
H          0.69842       -8.98796       10.63425
H          2.41067       -9.26881       10.84014
H          2.68969      -11.60752        8.99490
H          3.75684      -10.22505        9.04996
H          3.03372      -10.71073        7.53528
H         -1.74558       -9.60211        8.13419
H         -0.67713       -8.26390        8.48158
H         -0.98106       -9.47838        9.70048
H         -1.29279       -7.17831        6.53041
H         -1.82206       -4.81618        6.60460
H         -0.13732       -3.17839        6.08648
H          4.25866       -5.27287        4.64910
H          4.70285       -6.99198        4.34475
H          6.27966       -5.87124        5.71000
H          3.25168       -6.00139        8.08152
H          4.32271       -5.12007        9.19502
H          5.85482       -8.94251        8.28575
H          6.19240       -8.25742        6.08755
H          3.25135       -8.85812        5.36741
H          8.61966       -5.10919        6.67686
H         10.44631       -6.23614        7.81697
H         10.33263       -6.61411       10.21014
H          8.41277       -5.84597       11.47724
H          6.58824       -4.70505       10.34822
