58
*****
C         15.27262        4.52503       -5.73403
C         14.34564        4.17366       -4.57792
Si        12.91494        2.99633       -5.00063
C         11.83732        3.78266       -6.37947
C         11.13613        5.07537       -5.98451
C         13.61935        1.37462       -5.73882
C         14.43420        0.53083       -4.76740
N         11.91520        2.63565       -3.61681
C         10.84012        1.76951       -3.56423
C         10.20501        1.00833       -4.56854
C          9.14221        0.17701       -4.22766
C          8.71402        0.09006       -2.91375
C          9.33512        0.84379       -1.90424
I          8.56350        0.56072        0.02541
C         10.41483        1.71848       -2.21640
C         11.26494        2.62999       -1.48447
C         11.28789        2.96385       -0.02073
C         12.18883        2.00888        0.79562
N         13.62394        2.26652        0.49659
C         14.27597        3.37592        1.22730
C         13.95733        3.42590        2.69947
C         12.72491        2.75626        3.16249
C         11.93460        2.14229        2.27427
O         14.64487        4.04075        3.51046
C         12.14615        3.18596       -2.39304
O         15.84513        1.50219       -0.43854
S         14.58699        0.94086        0.02495
C         14.86073       -0.02397        1.59958
F         13.68806       -0.49545        2.11316
F         15.67883       -1.09619        1.42044
F         15.42174        0.75231        2.57000
O         13.78778        0.15189       -0.89618
H         16.03755        5.18880       -5.38879
H         14.71044        5.00145       -6.50983
H         15.72116        3.63171       -6.11572
H         13.92386        5.08394       -4.20591
H         14.95115        3.65409       -3.86496
H         11.08951        3.07190       -6.66319
H         12.50545        4.03440       -7.17642
H         10.45153        4.88010       -5.18570
H         10.60092        5.46240       -6.82634
H         11.86321        5.79196       -5.66398
H         14.24850        1.63108       -6.56543
H         12.77507        0.77992       -6.01887
H         15.29634        1.08124       -4.45330
H         14.74409       -0.37146       -5.25190
H         13.83463        0.28990       -3.91454
H         10.52597        1.06762       -5.54756
H          8.67035       -0.37802       -4.95863
H          7.92945       -0.53580       -2.67338
H         10.28987        2.90183        0.36009
H         11.68926        3.95068        0.07915
H         11.94659        1.00720        0.50776
H         13.96092        4.29811        0.78549
H         15.33075        3.21395        1.14913
H         12.47516        2.76188        4.16379
H         11.06640        1.71898        2.63768
H         12.86037        3.89955       -2.17924
