52
*****
C         -1.84224      -10.05328        1.71501
Si        -0.09792      -10.40616        2.32960
C         -0.16830      -10.37966        4.21411
C          0.40771      -12.12093        1.76918
N          0.99717       -9.16845        1.77056
C          0.92247       -7.81167        2.01531
C         -0.01226       -7.05315        2.75294
C          0.14347       -5.67505        2.84536
C          1.21438       -5.05237        2.22967
C          2.15601       -5.79335        1.49354
I          3.72840       -4.65474        0.70245
C          2.01948       -7.20600        1.35478
C          2.73265       -8.27470        0.68416
C          3.95636       -8.24674       -0.18788
C          3.74878       -8.82286       -1.61329
N          2.88328       -8.00537       -2.46804
C          3.43069       -6.77917       -3.05406
C          4.84466       -6.94659       -3.58666
C          5.59426       -8.16682       -3.21721
C          5.07969       -9.00044       -2.30491
O          5.40425       -6.08409       -4.26098
C          2.08941       -9.45567        1.01167
C          1.54365       -8.33331       -2.57335
O          0.84221       -7.41168       -3.28375
C         -0.56627       -7.66413       -3.48220
C         -1.46039       -6.79696       -2.58049
Cl        -1.26629       -7.20138       -0.85496
Cl        -1.08920       -5.05640       -2.81093
Cl        -3.18098       -7.06204       -3.02789
O          1.03612       -9.34538       -2.10873
H         -2.50468      -10.81790        2.06348
H         -1.84708      -10.03756        0.64513
H         -2.16626       -9.10384        2.08713
H         -0.83999      -11.13886        4.55666
H         -0.51354       -9.42236        4.54471
H          0.80872      -10.56271        4.61013
H         -0.29511      -12.83844        2.13813
H          1.38182      -12.34767        2.14945
H          0.42520      -12.15601        0.69990
H         -0.80582       -7.51876        3.22038
H         -0.54217       -5.11445        3.37511
H          1.32384       -4.02948        2.31174
H          4.72244       -8.81742        0.29415
H          4.21540       -7.21611       -0.31282
H          3.25726       -9.76267       -1.47164
H          3.43883       -6.01773       -2.30237
H          2.80791       -6.51926       -3.88443
H          6.50423       -8.37340       -3.65800
H          5.63748       -9.83163       -2.05387
H          2.38960      -10.40096        0.72647
H         -0.76227       -8.69416       -3.26882
H         -0.79758       -7.41785       -4.49745
