76
*****
Si         9.94362       -4.04843        5.00716
C         10.20346       -2.83031        6.45993
C         11.50557       -2.00246        6.50998
C         11.60219       -0.94713        5.40656
C         11.61687       -1.31280        7.87472
C          8.82767       -5.49690        5.59315
C          7.33045       -5.29489        5.90317
C          7.05743       -4.26040        6.99446
C          6.47624       -5.01150        4.66767
C         11.67176       -4.82505        4.54491
C         12.41252       -5.58129        5.66834
C         12.09384       -7.07947        5.64858
C         13.92586       -5.39429        5.51438
N          9.25430       -3.31436        3.58052
C          9.06932       -3.90057        2.34344
C          9.31503       -5.20906        1.87543
C          9.07461       -5.51256        0.53701
C          8.60515       -4.54000       -0.33054
C          8.33711       -3.24313        0.12901
Br         7.73999       -1.99780       -1.17460
C          8.53918       -2.90352        1.49537
C          8.31603       -1.72721        2.31027
C          7.70181       -0.41889        1.88570
C          6.98202        0.41211        2.97915
N          7.93271        1.05457        3.92990
C          8.67837        2.22600        3.40396
C          7.81991        3.22010        2.65938
C          6.49728        2.76734        2.17387
C          6.14216        1.48545        2.32876
O          8.18699        4.36592        2.41375
C          8.79775       -2.02968        3.56755
O          8.67213        1.56383        6.29656
S          7.50150        1.07604        5.58696
C          6.10650        2.31187        5.74173
F          6.45788        3.53160        5.24704
F          4.99834        1.91429        5.05358
F          5.72398        2.49989        7.03430
O          7.00315       -0.25441        5.89506
H         10.15958       -3.40301        7.36270
H          9.43518       -2.09787        6.32515
H         12.31117       -2.68932        6.35459
H         10.81161       -0.23561        5.52332
H         11.51709       -1.42126        4.45112
H         12.54543       -0.44643        5.47350
H         10.79894       -0.63427        7.99921
H         12.53925       -0.77305        7.92742
H         11.59008       -2.04977        8.65000
H          9.27200       -5.87466        6.49024
H          8.79739       -6.12470        4.72721
H          7.02693       -6.24633        6.28727
H          7.34882       -3.29094        6.64784
H          7.61887       -4.50956        7.87060
H          6.01346       -4.25642        7.22899
H          6.75158       -4.06418        4.25334
H          5.44300       -4.99271        4.94509
H          6.63618       -5.77923        3.93972
H         12.30724       -4.02983        4.21520
H         11.45904       -5.56360        3.80047
H         12.08042       -5.17536        6.60099
H         12.42018       -7.50132        4.72098
H         11.03841       -7.22103        5.75308
H         12.60035       -7.56256        6.45789
H         14.24253       -5.80462        4.57830
H         14.43040       -5.89679        6.31302
H         14.16119       -4.35092        5.54433
H          9.66943       -5.93427        2.51845
H          9.24751       -6.46878        0.18949
H          8.45135       -4.77235       -1.32422
H          6.98576       -0.63261        1.11987
H          8.52786        0.18705        1.57686
H          6.37062       -0.26639        3.53658
H          9.43574        1.87030        2.73706
H          9.08169        2.74045        4.25106
H          5.85379        3.43411        1.71959
H          5.21433        1.20702        1.97288
H          8.81046       -1.38408        4.37258
