62
*****
C          2.59822      -10.22928        4.55229
Si         1.00806       -9.68058        3.72977
C         -0.09003      -11.18811        3.45616
C          0.07601       -8.53071        4.89407
N          1.28582       -8.87546        2.20745
C          0.33173       -8.35668        1.35286
C         -1.07739       -8.32441        1.42521
C         -1.80001       -7.71389        0.40169
C         -1.14571       -7.14282       -0.67800
C          0.25319       -7.16809       -0.75869
Br         1.02428       -6.35284       -2.29056
C          1.02455       -7.78163        0.26545
C          2.43110       -7.98038        0.51600
C          3.61099       -7.53624       -0.29962
C          3.99393       -6.06002       -0.05222
N          4.51311       -5.87711        1.33028
C          5.93914       -6.20018        1.53998
C          6.83234       -5.50524        0.54235
C          6.29239       -5.29191       -0.81824
C          5.00753       -5.57942       -1.06287
O          7.98456       -5.16401        0.79387
C          2.53862       -8.67023        1.70901
S          3.83355       -4.65678        2.28234
C          4.57935       -3.17438        1.62329
C          3.96984       -2.51307        0.55187
C          4.55117       -1.35257        0.01922
C          3.89869       -0.64646       -1.14769
F          3.47847       -1.51587       -2.10826
F          2.80313        0.06704       -0.77607
F          4.72788        0.23053       -1.77695
C          5.72826       -0.85298        0.60438
C          6.33262       -1.49840        1.69970
C          7.58360       -0.91911        2.32352
F          8.52576       -0.59723        1.39538
F          7.32684        0.22803        3.00957
F          8.19140       -1.75755        3.20519
C          5.74050       -2.66188        2.21210
O          2.41676       -4.57484        2.00616
O          4.32178       -4.81420        3.63556
H          2.37157      -10.71523        5.47824
H          3.21600       -9.37588        4.73923
H          3.11575      -10.91029        3.90942
H         -0.25921      -11.68051        4.39094
H          0.39223      -11.86263        2.77988
H         -1.02642      -10.87692        3.04234
H         -0.09266       -9.02753        5.82660
H         -0.86355       -8.26502        4.45643
H          0.65469       -7.64625        5.06070
H         -1.56783       -8.74867        2.22802
H         -2.83061       -7.68695        0.44833
H         -1.69335       -6.69494       -1.42935
H          3.37449       -7.65816       -1.33601
H          4.44671       -8.13719       -0.00750
H          3.10838       -5.47039       -0.16640
H          6.07102       -7.25758        1.44290
H          6.21268       -5.86238        2.51772
H          6.89819       -4.92616       -1.56942
H          4.67909       -5.46131       -2.03406
H          3.41973       -8.97848        2.14906
H          3.09144       -2.87928        0.15271
H          6.15781        0.00438        0.22301
H          6.16144       -3.14027        3.02387
