97
*****
Si        10.06534       -3.81812        5.04515
C         11.64015       -4.65084        4.35945
C         12.65515       -5.25473        5.35242
C         12.25785       -6.65463        5.82633
C         14.03614       -5.33216        4.68942
C         10.49656       -2.58990        6.45849
C         11.25968       -1.27633        6.19431
C         12.66242       -1.47379        5.62196
C         10.47700       -0.26495        5.35672
C          8.93374       -5.15164        5.89259
C          8.58840       -6.41399        5.07611
C          8.04920       -7.49553        6.01893
C          7.55581       -6.14779        3.97771
N          9.14196       -3.01435        3.79806
C          7.88941       -2.44122        3.91639
C          7.07153       -2.21374        5.04364
C          5.80460       -1.66640        4.87134
C          5.34092       -1.36404        3.60278
C          6.14781       -1.57374        2.47153
I          5.22973       -1.13852        0.63876
C          7.46820       -2.08931        2.61122
C          8.58452       -2.36611        1.73673
C          8.77218       -2.13370        0.26507
C          9.52787       -0.81928       -0.05932
N         10.12680       -0.86503       -1.39442
C          9.26012       -0.66071       -2.55535
C          8.28266        0.48880       -2.36698
C          8.09878        1.03765       -1.00467
C          8.65987        0.40835        0.03589
O          7.59801        0.93235       -3.28745
C          9.57836       -2.93504        2.51241
C         11.37385       -1.45510       -1.51526
O         11.67800       -1.75455       -2.80268
C         12.87566       -2.52050       -3.03183
C         12.59967       -4.03063       -3.11054
C         11.41733       -4.39177       -4.00510
C         11.21292       -4.07271       -5.33885
C         10.04045       -4.52153       -5.94982
C          9.09922       -5.27772       -5.23180
C          9.31323       -5.60013       -3.88831
C         10.47516       -5.15508       -3.28006
C         10.95726       -5.33808       -1.92759
C         12.20275       -4.68762       -1.79390
C         12.90831       -4.72499       -0.60082
C         12.34499       -5.40837        0.47802
C         11.10034       -6.04604        0.35353
C         10.39869       -6.01550       -0.85554
O         12.10913       -1.69477       -0.56568
H         12.16184       -3.91294        3.78651
H         11.27063       -5.49807        3.82042
H         12.67422       -4.61336        6.20868
H         12.23028       -7.32020        4.98898
H         11.29093       -6.61557        6.28288
H         12.97456       -7.00687        6.53848
H         13.98738       -5.97868        3.83822
H         14.74700       -5.71786        5.39000
H         14.33741       -4.35397        4.37753
H         11.08247       -3.13989        7.16499
H          9.53042       -2.23403        6.74974
H         11.37533       -0.85992        7.17316
H         12.59116       -1.89053        4.63904
H         13.21443       -2.13923        6.25234
H         13.16406       -0.52991        5.57368
H         10.34202       -0.64962        4.36742
H         11.01991        0.65591        5.31036
H          9.52125       -0.09327        5.80614
H          8.01156       -4.67343        6.14912
H          9.50831       -5.51083        6.72069
H          9.48929       -6.73579        4.59680
H          7.15023       -7.14781        6.48352
H          8.77961       -7.70955        6.77099
H          7.84135       -8.38423        5.46044
H          6.63826       -5.82278        4.42197
H          7.38487       -7.04692        3.42341
H          7.92258       -5.38763        3.32004
H          7.41091       -2.45171        5.98874
H          5.20745       -1.48487        5.69322
H          4.39032       -0.97961        3.48617
H          7.80822       -2.09376       -0.19763
H          9.36715       -2.94063       -0.10880
H         10.29128       -0.74450        0.68668
H          8.70329       -1.55790       -2.72821
H          9.88796       -0.41632       -3.38660
H          7.54437        1.89569       -0.85831
H          8.48386        0.79462        0.97655
H         10.50060       -3.24826        2.17124
H         13.55931       -2.33755       -2.22930
H         13.28379       -2.21411       -3.97228
H         13.54433       -4.37801       -3.47362
H         11.90738       -3.51945       -5.86482
H          9.86317       -4.29499       -6.94091
H          8.23873       -5.59940       -5.70202
H          8.62157       -6.15672       -3.36216
H         13.82539       -4.25997       -0.51286
H         12.84924       -5.44536        1.37768
H         10.69867       -6.54308        1.16386
H          9.48527       -6.48692       -0.94745
