65
*****
C         13.07348       -6.08933       -4.68346
C         13.87385       -6.30071       -3.40470
Si        12.87725       -6.79589       -1.86484
C         11.73533       -8.27605       -2.29435
C         12.44510       -9.49824       -2.86261
C         14.10502       -7.43107       -0.52752
C         15.00047       -6.35769        0.07750
N         11.93322       -5.49062       -1.19351
C         11.13456       -5.53568       -0.06540
C         10.80319       -6.59035        0.81216
C          9.97411       -6.33747        1.90365
C          9.48484       -5.06216        2.13494
C          9.81355       -4.00607        1.27453
Br         9.10239       -2.30286        1.72044
C         10.64594       -4.22765        0.14400
C         11.18028       -3.40933       -0.91573
C         11.01161       -1.93634       -1.15363
C         12.02927       -1.08663       -0.35972
N         13.39235       -1.23986       -0.93592
C         13.71206       -0.38961       -2.10033
C         13.36025        1.06136       -1.89227
C         12.23268        1.36734       -0.98632
C         11.63051        0.36817       -0.32945
O         13.91635        1.97777       -2.49255
C         11.95455       -4.23046       -1.71294
O         15.83055       -1.92727       -0.68514
S         14.65427       -1.65115        0.11265
C         14.95044       -0.13615        0.99853
C         14.30928        0.08646        2.22147
C         14.54892        1.27151        2.91655
C         15.43318        2.21879        2.39778
C         16.08987        1.98105        1.18917
C         15.85851        0.79716        0.48944
O         14.16469       -2.62238        1.06698
H         13.73607       -5.81567       -5.47780
H         12.35760       -5.30879       -4.53125
H         12.56459       -6.99507       -4.93954
H         14.38377       -5.38637       -3.18364
H         14.52162       -7.12837       -3.60538
H         11.01938       -7.94329       -3.01656
H         11.29583       -8.59021       -1.37075
H         12.90670       -9.24199       -3.79329
H         11.73412      -10.28203       -3.02099
H         13.19304       -9.82919       -2.17271
H         14.73153       -8.17336       -0.97629
H         13.50733       -7.81223        0.27396
H         15.62323       -5.94066       -0.68614
H         15.61311       -6.79221        0.83958
H         14.39410       -5.58617        0.50409
H         11.17145       -7.54017        0.64710
H          9.72274       -7.10628        2.54456
H          8.87313       -4.88845        2.94775
H         10.02325       -1.65229       -0.85806
H         11.17934       -1.75456       -2.19465
H         12.03690       -1.44317        0.64910
H         13.16744       -0.75337       -2.94648
H         14.77027       -0.44130       -2.25007
H         11.91320        2.34069       -0.86159
H         10.81581        0.61679        0.25319
H         12.46454       -3.93813       -2.56116
H         13.66383       -0.62077        2.60650
H         14.07235        1.44813        3.81473
H         15.60216        3.09865        2.90995
H         16.74722        2.68210        0.81307
H         16.35349        0.61146       -0.39686
