79
*****
C         11.94216        5.09874        3.12035
C         11.86634        6.27298        2.15490
Si        11.06464        5.88488        0.46476
C          9.20223        5.58147        0.70013
C          8.43488        6.70144        1.39068
C         11.30775        7.46323       -0.61038
C         10.71934        7.37556       -2.01258
N         11.86247        4.55499       -0.33956
C         13.21435        4.41796       -0.58525
C         14.32001        5.22364       -0.23870
C         15.59858        4.84063       -0.63829
C         15.78526        3.68957       -1.38522
C         14.69300        2.89024       -1.74997
Br        15.09139        1.37039       -2.81625
C         13.37469        3.23642       -1.34182
C         12.05489        2.67259       -1.53394
C         11.69519        1.45086       -2.34161
C         10.32221        0.79773       -2.04985
N          9.86679       -0.01930       -3.17865
C         10.43487       -1.35462       -3.35987
C         10.58401       -2.12595       -2.05780
C         10.45435       -1.38609       -0.78252
C         10.35385       -0.05138       -0.80400
O         10.87161       -3.32135       -2.02523
C         11.16620        3.52389       -0.90248
C          9.25016        0.64882       -4.22625
O          9.13346       -0.11439       -5.34542
C          8.60886        0.54433       -6.51495
C          9.69992        0.84522       -7.55273
C         10.33905       -0.39996       -8.15949
C          9.72423       -1.44635       -8.83115
C         10.53108       -2.46219       -9.34712
C         11.92628       -2.41971       -9.19226
C         12.54062       -1.35951       -8.51838
C         11.74165       -0.35031       -8.00614
C         12.09504        0.86262       -7.29914
C         10.91750        1.59038       -7.01777
C         10.96758        2.80990       -6.36007
C         12.21515        3.29498       -5.96265
C         13.38690        2.57079       -6.23419
C         13.33265        1.34709       -6.90800
O          8.86697        1.81096       -4.14844
H         12.40406        5.41578        4.03196
H         12.52109        4.31309        2.68162
H         10.95465        4.74188        3.32617
H         12.86266        6.62019        1.97689
H         11.23720        7.00163        2.62197
H          9.08477        4.69295        1.28463
H          8.79078        5.50897       -0.28493
H          8.80299        6.82386        2.38788
H          7.39437        6.45401        1.42245
H          8.56824        7.61321        0.84682
H         12.35809        7.64640       -0.70062
H         10.78396        8.25189       -0.11181
H         11.21098        6.59705       -2.55765
H         10.86035        8.30834       -2.51750
H          9.67336        7.15972       -1.94759
H         14.18261        6.08926        0.30614
H         16.41216        5.41874       -0.37582
H         16.73738        3.41770       -1.67603
H         12.44879        0.71237       -2.16375
H         11.63162        1.79391       -3.35313
H          9.63399        1.60272       -1.89738
H         11.40129       -1.25471       -3.80816
H          9.75846       -1.90569       -3.97929
H         10.44154       -1.89469        0.11536
H         10.29321        0.43511        0.10412
H         10.14244        3.39987       -0.86312
H          8.15457        1.46588       -6.21618
H          7.89711       -0.11284       -6.96930
H          9.13625        1.42696       -8.25185
H          8.69902       -1.47320       -8.94626
H         10.09730       -3.25336       -9.84803
H         12.50542       -3.18048       -9.58066
H         13.56596       -1.32957       -8.40521
H         10.10587        3.34478       -6.16936
H         12.27664        4.19619       -5.46357
H         14.29956        2.94647       -5.93265
H         14.19476        0.81679       -7.10942
