89
*****
Si         9.88195       -4.01092        5.03543
C         11.68923       -4.15426        4.48085
C         12.43414       -3.10567        3.63375
C         12.43111       -1.69613        4.21553
C         13.88754       -3.56165        3.43332
C          9.75108       -3.25050        6.81312
C         10.12427       -1.77508        7.03783
C          9.14293       -0.79887        6.38936
C         10.19192       -1.49055        8.54336
C          9.22161       -5.88121        5.32444
C         10.24261       -6.95343        5.74690
C         10.76693       -6.75668        7.16979
C          9.58685       -8.33553        5.64065
N          8.71522       -3.30404        3.94146
C          7.35712       -3.13853        4.16952
C          6.52975       -3.50060        5.25470
C          5.17341       -3.18083        5.22361
C          4.63207       -2.51805        4.13520
C          5.43832       -2.16302        3.04637
Br         4.56465       -1.29236        1.60208
C          6.82606       -2.47161        3.04297
C          7.91847       -2.27211        2.12770
C          7.93132       -1.57272        0.79926
C          7.98053       -0.03316        0.92670
N          9.25010        0.40684        1.56646
C         10.42293        0.52063        0.67657
C         10.12949        1.35525       -0.54559
C          8.75752        1.29391       -1.09606
C          7.81074        0.63299       -0.41755
O         10.97974        2.02918       -1.12022
C          9.03197       -2.86324        2.69256
S          9.15129        1.46567        2.88099
C          8.76771        3.03057        2.11162
C          7.43006        3.38888        1.91133
C          7.11192        4.61605        1.31094
C          5.66563        4.99617        1.08791
F          4.93238        3.96492        0.58400
F          5.04591        5.37677        2.23625
F          5.50935        6.02647        0.21236
C          8.15653        5.48500        0.94987
C          9.50404        5.14282        1.17241
C         10.60122        6.11403        0.79460
F         10.48171        6.55757       -0.48661
F         10.58945        7.22685        1.57836
F         11.85258        5.59209        0.90014
C          9.80149        3.90779        1.76717
O          8.00681        1.10754        3.68915
O         10.46897        1.58847        3.46576
H         11.74614       -5.06567        3.92319
H         12.19090       -4.03939        5.41895
H         11.90191       -3.04407        2.70756
H         12.95305       -1.69468        5.14959
H         11.42182       -1.37638        4.37043
H         12.91633       -1.02826        3.53478
H         14.38047       -3.60914        4.38182
H         14.39633       -2.86394        2.80148
H         13.89801       -4.52945        2.97706
H         10.38704       -3.83197        7.44742
H          8.70164       -3.27747        7.02015
H         11.07550       -1.62239        6.57228
H          8.17532       -0.92067        6.82957
H          9.08455       -0.99654        5.33940
H          9.48199        0.20396        6.54518
H          9.22855       -1.65132        8.98037
H         10.49032       -0.47523        8.70141
H         10.90409       -2.14660        8.99868
H          8.77964       -6.20757        4.40626
H          8.55695       -5.80286        6.15930
H         11.08169       -6.86791        5.08848
H          9.95553       -6.83498        7.86291
H         11.21574       -5.78901        7.25390
H         11.49640       -7.50838        7.38823
H          8.75369       -8.38741        6.31002
H         10.30023       -9.08967        5.90000
H          9.24907       -8.49390        4.63780
H          6.92691       -3.99916        6.06632
H          4.56795       -3.44012        6.01810
H          3.62702       -2.28391        4.12615
H          7.04509       -1.84219        0.26366
H          8.81815       -1.87942        0.28509
H          7.16475        0.26517        1.55152
H         10.71435       -0.45995        0.36283
H         11.20622        1.00207        1.22391
H          8.53292        1.75471       -1.99174
H          6.87769        0.57344       -0.85446
H          9.95520       -2.95587        2.24080
H          6.67593        2.74895        2.20595
H          7.93100        6.39225        0.51276
H         10.78282        3.64633        1.95060
