76
*****
C         12.06535        3.26270       -6.69845
Si        11.56639        1.61699       -5.93625
C         11.04234        0.43915       -7.37248
C         11.75098        0.44525       -8.58986
C         11.37810       -0.40194       -9.63609
C         10.29463       -1.26359       -9.48678
C          9.58161       -1.28088       -8.29106
C          9.94952       -0.43709       -7.24020
C         13.09228        0.77433       -5.16658
C         13.77307        1.42397       -4.11701
C         14.90141        0.84775       -3.52806
C         15.37060       -0.38439       -3.97340
C         14.71144       -1.04331       -5.00703
C         13.58265       -0.47112       -5.60041
N         10.23375        1.79965       -4.81914
C          9.83390        0.92972       -3.82049
C         10.37511       -0.29708       -3.38000
C          9.75733       -0.98625       -2.34109
C          8.61198       -0.48232       -1.74980
C          8.05607        0.73275       -2.18208
I          6.29449        1.30519       -1.19543
C          8.66869        1.47584       -3.23234
C          8.40992        2.72272       -3.91648
C          7.31957        3.73326       -3.70164
C          7.58779        4.68848       -2.51849
N          8.75769        5.56783       -2.79319
C          8.48716        6.77246       -3.60574
C          7.33213        7.57906       -3.06697
C          6.22987        6.83577       -2.41876
C          6.36595        5.52050       -2.20668
O          7.24809        8.79789       -3.18734
C          9.38528        2.86697       -4.88513
S          9.95701        5.67820       -1.60279
C          9.18633        6.68448       -0.34472
C          8.42486        6.07142        0.65653
C          7.79423        6.85026        1.63820
C          6.95198        6.18699        2.70447
F          6.13813        5.22211        2.19248
F          7.70523        5.58087        3.65956
F          6.13310        7.05474        3.35940
C          7.97751        8.24401        1.61884
C          8.76854        8.86516        0.63352
C          8.96121       10.36600        0.65735
F          7.77963       11.03836        0.72208
F          9.68159       10.77054        1.73910
F          9.61433       10.85019       -0.43274
C          9.38029        8.06994       -0.34691
O         10.16603        4.36871       -1.02636
O         11.06324        6.43870       -2.14282
H         12.88098        3.11019       -7.37401
H         12.36482        3.93805       -5.92442
H         11.23407        3.67600       -7.23048
H         12.55399        1.08223       -8.71008
H         11.90712       -0.38913      -10.52210
H         10.02056       -1.88836      -10.26110
H          8.77838       -1.91935       -8.18064
H          9.41436       -0.45668       -6.35802
H         13.43331        2.33791       -3.77893
H         15.38815        1.33710       -2.76083
H         16.20493       -0.80833       -3.53845
H         15.05748       -1.95799       -5.33665
H         13.10265       -0.96858       -6.36667
H         11.22340       -0.68041       -3.82552
H         10.15561       -1.87864       -2.00940
H          8.16139       -1.00527       -0.98265
H          6.40539        3.20999       -3.51363
H          7.26954        4.33422       -4.58553
H          7.81410        4.08751       -1.66262
H          8.25779        6.46858       -4.60571
H          9.36015        7.39042       -3.57551
H          5.36685        7.32452       -2.13352
H          5.55967        5.02862       -1.79077
H          9.45988        3.65305       -5.54961
H          8.32701        5.04420        0.67281
H          7.52296        8.82368        2.34160
H          9.97334        8.50688       -1.06968
