85
*****
C         -1.35070        0.20164        9.87356
Si         0.15102        1.09247       10.53296
C         -0.25540        2.87783       10.96534
C          0.71736        0.17441       12.41670
C          2.09166        0.80873       12.77148
C         -0.37354        0.50090       13.51189
C         -1.66530       -0.31833       13.38517
C          0.14919        0.31333       14.94720
C          0.91342       -1.33749       12.17226
N          1.54823        0.96201        9.49053
C          1.95866       -0.12526        8.74263
C          1.38977       -1.40415        8.56314
C          2.04087       -2.34163        7.76785
C          3.24723       -2.03022        7.16628
C          3.82931       -0.76275        7.33473
I          5.68864       -0.51713        6.39673
C          3.17914        0.23381        8.11919
C          3.43254        1.60926        8.48273
C          4.54663        2.53927        8.09937
C          4.17023        3.54571        6.98239
N          5.19726        4.57865        6.83159
C          6.40555        4.25829        6.07016
C          6.12319        3.48954        4.79057
C          4.78599        2.88154        4.61953
C          3.92402        2.89842        5.64369
O          6.98117        3.29965        3.92991
C          2.41346        2.00122        9.33082
C          5.19111        5.61493        7.75260
O          6.37562        6.27269        7.78545
C          6.59868        7.17537        8.88432
C          7.17534        6.47067       10.12584
C          8.17145        5.35998        9.80185
C          9.32158        5.42625        9.03052
C         10.06179        4.25570        8.85211
C          9.65272        3.04828        9.44233
C          8.49647        2.98924       10.22557
C          7.76102        4.14918       10.40367
C          6.53680        4.37979       11.14005
C          6.15713        5.73033       10.98527
C          5.01851        6.23151       11.59839
C          4.24346        5.35920       12.36475
C          4.61554        4.01416       12.51708
C          5.76817        3.51549       11.90305
O          4.24084        5.88099        8.47680
H         -2.16522        0.32157       10.55699
H         -1.12810       -0.83910        9.76307
H         -1.61970        0.61175        8.92259
H         -1.11468        2.90379       11.60241
H         -0.45972        3.42438       10.06843
H          0.57707        3.32071       11.47107
H          1.96680        1.85749       12.94297
H          2.77370        0.65860       11.96080
H          2.48037        0.34667       13.65483
H         -0.59857        1.53008       13.32467
H         -1.45267       -1.35048       13.57049
H         -2.06241       -0.20767       12.39777
H         -2.38133        0.03207       14.09891
H          0.36818       -0.72052       15.11477
H         -0.59593        0.63747       15.64336
H          1.03873        0.89265       15.08138
H          1.66277       -1.48335       11.42253
H         -0.00910       -1.76814       11.84301
H          1.22245       -1.80873       13.08184
H          0.49541       -1.64271        9.01946
H          1.62194       -3.27403        7.62589
H          3.72535       -2.73769        6.58670
H          5.37334        1.95170        7.75847
H          4.78242        3.11572        8.96942
H          3.24890        3.98637        7.30156
H          7.04880        3.66627        6.68712
H          6.85841        5.18610        5.78913
H          4.52036        2.44917        3.72091
H          3.01538        2.42920        5.50506
H          2.32322        2.93019        9.77114
H          5.66620        7.62791        9.15003
H          7.31511        7.90278        8.56417
H          7.60821        7.30903       10.63049
H          9.62199        6.31505        8.60062
H         10.92008        4.27787        8.27951
H         10.21297        2.19408        9.29579
H          8.19793        2.10239       10.66077
H          4.75142        7.22254       11.49099
H          3.38744        5.70701       12.82440
H          4.03072        3.38552       13.08964
H          6.04034        2.52639       12.01545
