73
*****
C          0.25133       -1.10772       11.34879
Si         2.07485       -1.51488       11.19931
C          2.98392       -0.69015       12.62996
C          2.25766       -3.65858       11.50155
C          1.03969       -4.29036       10.77520
C          3.62134       -4.18029       10.89370
C          4.87448       -3.77862       11.68329
C          3.65584       -5.71060       10.73319
C          2.11866       -3.90702       13.02116
N          2.79887       -1.17858        9.64855
C          2.23474       -1.28621        8.39304
C          0.92890       -1.61245        7.97187
C          0.63473       -1.65883        6.61144
C          1.61495       -1.39058        5.67208
C          2.92179       -1.07408        6.07350
I          4.27240       -0.68950        4.51232
C          3.26036       -1.01694        7.45661
C          4.46810       -0.76389        8.21662
C          5.85636       -0.54052        7.67130
C          7.00593       -0.43002        8.70461
N          8.29137       -0.83878        8.12909
C          9.04651        0.11503        7.31763
C          9.02504        1.53465        7.85626
C          8.05049        1.86821        8.91587
C          7.13105        0.96297        9.27142
O          9.73874        2.42567        7.39911
C          4.11189       -0.81379        9.55043
O          7.82560       -3.04710        8.57381
C          8.53460       -2.20367        8.04082
O          9.62284       -2.48703        7.28188
C         10.01353       -3.86086        7.02380
C          8.92867       -4.60846        6.23958
C         11.26562       -3.74859        6.14079
C         10.39211       -4.58960        8.31798
H         -0.08893       -1.35124       12.33358
H         -0.30110       -1.67595       10.62987
H          0.10306       -0.06354       11.16824
H          2.49489       -0.93244       13.55031
H          2.97846        0.37087       12.49172
H          3.99441       -1.04073       12.65992
H          1.12673       -4.12358        9.72186
H          0.13765       -3.84053       11.13419
H          1.01524       -5.34239       10.96892
H          3.64927       -3.69674        9.93961
H          4.86050       -4.25525       12.64117
H          4.88885       -2.71667       11.81350
H          5.74783       -4.08389       11.14573
H          3.62705       -6.17122       11.69854
H          4.55508       -5.99610       10.22845
H          2.80938       -6.02838       10.16098
H          1.17634       -3.52961       13.35954
H          2.91007       -3.40592       13.53835
H          2.17338       -4.95746       13.21730
H          0.19501       -1.81578        8.66834
H         -0.32094       -1.89490        6.30163
H          1.38269       -1.42362        4.66710
H          5.83983        0.36882        7.10763
H          6.07693       -1.41886        7.10142
H          6.75234       -1.09779        9.50127
H          8.63013        0.12247        6.33200
H         10.06704       -0.20630        7.33045
H          8.07863        2.79077        9.37749
H          6.44963        1.24125        9.99478
H          4.73727       -0.60846       10.34526
H          8.69612       -4.06615        5.34699
H          8.04928       -4.69653        6.84275
H          9.28354       -5.58441        5.98173
H         11.01692       -3.24129        5.23211
H         11.63099       -4.72833        5.91380
H         12.02103       -3.19798        6.66143
H          9.52895       -4.67565        8.94443
H         11.15086       -4.03577        8.83030
H         10.76082       -5.56612        8.08267
