62
*****
C         13.00686        0.53340       -6.73483
Si        12.40604       -0.81472       -5.54520
C         12.17125       -2.39558       -6.63383
C         13.14120       -2.75180       -7.58929
C         12.97711       -3.89418       -8.37550
C         11.84963       -4.69652       -8.21811
C         10.88488       -4.36191       -7.27090
C         11.04214       -3.22144       -6.48029
C         13.77221       -1.29164       -4.33649
C         14.66415       -0.31448       -3.85238
C         15.67764       -0.65141       -2.95118
C         15.82053       -1.96643       -2.51809
C         14.95074       -2.94750       -2.98490
C         13.93539       -2.61570       -3.88569
N         10.86603       -0.32278       -4.88443
C         10.45482       -0.25447       -3.56783
C         11.12201       -0.56379       -2.36414
C         10.45953       -0.42041       -1.15008
C          9.14627        0.00928       -1.11884
C          8.46372        0.32322       -2.30589
I          6.46260        0.87894       -2.03275
C          9.11678        0.21780       -3.56977
C          8.77895        0.49181       -4.95223
C          7.53763        1.08553       -5.56922
C          7.67189        2.55640       -6.05795
N          7.94902        3.53408       -4.99723
C          9.34489        3.78779       -4.61275
C         10.35154        3.70032       -5.75015
C          9.87304        3.27364       -7.08010
C          8.65058        2.74095       -7.19001
O         11.54460        3.95636       -5.59804
C          9.85576        0.07555       -5.71292
O          5.70736        3.67202       -4.53319
C          6.86378        3.98899       -4.22650
C          7.15420        4.91443       -3.01819
F          8.09308        4.39346       -2.17752
F          7.63141        6.12910       -3.41374
F          6.05552        5.16450       -2.25508
H         13.95096        0.24805       -7.14973
H         13.11498        1.45575       -6.20333
H         12.29376        0.65734       -7.52288
H         13.98074       -2.16388       -7.70991
H         13.69328       -4.14459       -9.07508
H         11.72912       -5.53830       -8.80285
H         10.05118       -4.95862       -7.15291
H         10.32474       -2.98246       -5.77797
H         14.56775        0.66347       -4.16757
H         16.32203        0.07693       -2.60575
H         16.56956       -2.21337       -1.85251
H         15.05600       -3.92294       -2.66481
H         13.29615       -3.35126       -4.22534
H         12.09902       -0.89556       -2.38451
H         10.95064       -0.63581       -0.26836
H          8.66123        0.10060       -0.21252
H          6.75695        1.05074       -4.83831
H          7.33560        0.50230       -6.44325
H          6.69028        2.76212       -6.43081
H          9.62038        3.06880       -3.86975
H          9.37905        4.79754       -4.26041
H         10.47263        3.38463       -7.91268
H          8.35265        2.43045       -8.12802
H          9.89074        0.06713       -6.74430
