89
*****
Si        10.03705       -4.29421        5.03695
C          8.96339       -5.18569        6.36493
C          9.35154       -6.50561        7.06048
C         10.31246       -6.33015        8.23416
C          8.07750       -7.19047        7.58311
C         11.19924       -5.67973        3.97441
C         10.24663       -6.78681        3.45130
C         11.91463       -5.08546        2.74330
C         12.27473       -6.29510        4.89242
C         11.26988       -2.85778        5.99043
C         11.88308       -3.42837        7.27796
C         12.39575       -2.38152        5.05621
C         10.37478       -1.64970        6.36608
N          9.04521       -3.32696        3.92212
C          7.73677       -2.88706        4.07971
C          6.80569       -3.00425        5.13392
C          5.52064       -2.48065        4.99212
C          5.15092       -1.82962        3.82934
C          6.07257       -1.66390        2.78990
Br         5.45708       -0.71000        1.26681
C          7.39353       -2.17913        2.90227
C          8.57929       -2.12024        2.09280
C          8.81219       -1.41028        0.79071
C          9.12234        0.09256        0.97562
N         10.43430        0.27505        1.65424
C         11.63079        0.20846        0.79121
C         11.52091        1.12507       -0.40209
C         10.17421        1.32836       -0.97991
C          9.10844        0.82351       -0.34523
O         12.49158        1.65700       -0.93332
C          9.56674       -2.79492        2.77944
S         10.49843        1.27188        3.01702
C         10.45124        2.91194        2.31299
C          9.21717        3.53370        2.09580
C          9.16636        4.82053        1.53943
C          7.83187        5.48886        1.29808
F          6.91524        4.63594        0.76217
F          7.27841        5.97075        2.44218
F          7.90638        6.54214        0.43921
C         10.37249        5.47835        1.23941
C         11.61866        4.86939        1.48031
C         12.89659        5.61398        1.16051
F         13.03869        6.73431        1.92069
F         14.02274        4.87820        1.36091
F         12.94108        6.03225       -0.13370
C         11.64787        3.57948        2.02975
O          9.28215        1.10780        3.78143
O         11.79666        1.11125        3.63546
H          8.02180       -5.37531        5.89338
H          9.04864       -4.49941        7.18141
H          9.85678       -7.09480        6.32394
H          9.84219       -5.74358        8.99552
H         11.19896       -5.83400        7.89822
H         10.56958       -7.28993        8.63116
H          7.61027       -6.56431        8.31422
H          8.33415       -8.12878        8.02876
H          7.40171       -7.35479        6.76997
H          9.50537       -6.34865        2.81612
H          9.76824       -7.26636        4.27960
H         10.80924       -7.50899        2.89738
H         11.19118       -4.64992        2.08616
H         12.44265       -5.86094        2.22879
H         12.60617       -4.33338        3.06119
H         11.80668       -6.71639        5.75749
H         12.96362       -5.53416        5.19456
H         12.80011       -7.06172        4.36217
H         12.50521       -4.26477        7.03650
H         11.10076       -3.74402        7.93617
H         12.47044       -2.67382        7.75813
H         13.01687       -3.21233        4.79382
H         12.98391       -1.64017        5.55558
H         11.96945       -1.96083        4.16954
H          9.58986       -1.97583        7.01602
H          9.95101       -1.22992        5.47776
H         10.96547       -0.90926        6.86380
H          7.07582       -3.47763        6.01025
H          4.83998       -2.57992        5.76144
H          4.19102       -1.46447        3.72794
H          7.93405       -1.50645        0.18695
H          9.66437       -1.86051        0.32598
H          8.35398        0.51074        1.59178
H         11.75068       -0.79667        0.44444
H         12.47356        0.52188        1.37123
H         10.05754        1.85268       -1.86110
H          8.19120        0.94566       -0.80214
H         10.54899       -2.88364        2.47560
H          8.34300        3.04516        2.34515
H         10.34351        6.42706        0.83427
H         12.55226        3.12243        2.22524
