70
*****
Si         9.94244       -3.92874        4.94866
C         10.17898       -2.73301        6.49946
C         11.34528       -3.11380        7.41914
C         10.32128       -1.25827        6.09212
C          8.93243       -5.53700        5.58880
C          8.82509       -6.60850        4.49577
C          9.44993       -6.13493        6.89718
C         11.64418       -4.44415        4.15283
C         12.55323       -3.24919        3.82449
C         12.44819       -5.48106        4.94563
N          8.87359       -3.16392        3.77233
C          7.58246       -2.71383        3.98573
C          6.80854       -2.62501        5.16306
C          5.49760       -2.16590        5.09078
C          4.94546       -1.81981        3.87009
C          5.70207       -1.90060        2.68879
I          4.65139       -1.43556        0.93533
C          7.06266       -2.32208        2.72781
C          8.14338       -2.46539        1.77961
C          8.23250       -2.12252        0.31856
C          8.85021       -0.72565        0.06200
N          9.40934       -0.61406       -1.28908
C          8.48124       -0.43072       -2.40696
C          7.44891        0.64869       -2.12209
C          7.25165        1.07359       -0.71736
C          7.88182        0.41269        0.26315
O          6.72188        1.11395       -2.99760
C          9.21407       -3.01203        2.46404
C         10.76854       -0.78745       -1.45818
O         11.15446       -0.67926       -2.75605
C         12.57318       -0.77544       -3.01677
C         13.00320       -2.16007       -3.53137
Cl        12.72181       -3.45329       -2.32951
Cl        12.10653       -2.57326       -5.03087
Cl        14.75614       -2.12451       -3.92301
O         11.55301       -1.00390       -0.54405
H          9.27456       -2.86278        7.05631
H         12.26873       -2.99511        6.89184
H         11.23874       -4.13303        7.72689
H         11.34225       -2.47898        8.28047
H         11.22555       -1.12774        5.53518
H         10.35164       -0.64713        6.96989
H          9.48576       -0.97299        5.48762
H          7.95150       -5.17263        5.81221
H          9.80118       -6.98053        4.26394
H          8.38894       -6.17987        3.61773
H          8.21031       -7.41229        4.84341
H         10.43596       -6.52231        6.74688
H          8.80000       -6.92535        7.20977
H          9.47604       -5.37561        7.65061
H         11.33410       -4.91202        3.24187
H         12.86560       -2.77842        4.73317
H         12.01454       -2.54536        3.22504
H         13.41244       -3.59186        3.28668
H         12.77709       -5.04857        5.86741
H         13.29797       -5.78781        4.37232
H         11.83068       -6.33053        5.15052
H          7.21310       -2.89911        6.07203
H          4.93418       -2.08300        5.95142
H          3.96576       -1.49836        3.82674
H          7.24661       -2.14101       -0.09688
H          8.87315       -2.84549       -0.14162
H          9.62622       -0.64218        0.79394
H          7.97317       -1.35470       -2.58868
H          9.04976       -0.12588       -3.26064
H          6.63494        1.87082       -0.49577
H          7.68905        0.70614        1.23359
H         10.12466       -3.26406        2.04892
H         13.10033       -0.57172       -2.10819
H         12.80399       -0.06585       -3.78365
