70
*****
C         12.43006        4.40749        2.86672
Si        10.93330        5.48117        3.25689
C         10.70312        5.55790        5.11415
C         11.32131        7.21270        2.62023
N          9.52478        4.86135        2.43335
C          9.36735        4.66624        1.07486
C         10.24639        4.89120       -0.00614
C          9.83072        4.58912       -1.29930
C          8.56836        4.06647       -1.52524
C          7.68126        3.84030       -0.45959
I          5.83286        3.01125       -0.99372
C          8.06432        4.14978        0.87618
C          7.44556        4.08567        2.18021
C          6.05720        3.66883        2.58667
C          4.99840        4.79722        2.50010
N          3.70750        4.38095        3.06035
C          3.58706        4.29127        4.51959
C          4.14861        5.52323        5.21470
C          5.01584        6.43451        4.43390
C          5.40531        6.07243        3.20507
O          3.97697        5.74557        6.41209
C          8.39144        4.50710        3.09931
C          2.65519        4.09461        2.20980
O          1.54005        3.72420        2.88685
C          0.35732        3.42533        2.12393
C          0.06342        1.92167        2.08489
C          0.07570        1.24332        3.45155
C         -0.64159        1.57551        4.59091
C         -0.46568        0.78955        5.73175
C          0.40865       -0.30977        5.72002
C          1.12571       -0.64252        4.56680
C          0.95578        0.13834        3.43527
C          1.56456        0.04017        2.12530
C          1.07894        1.08879        1.31422
C          1.49636        1.23510        0.00039
C          2.41894        0.31711       -0.50374
C          2.90453       -0.72784        0.29867
C          2.47840       -0.87167        1.62267
O          2.71168        4.18985        0.99095
H         13.28856        4.79406        3.37509
H         12.60777        4.41317        1.81160
H         12.24441        3.40509        3.19175
H         11.59214        5.94323        5.56810
H         10.50765        4.57542        5.49021
H          9.87808        6.19889        5.34511
H         12.18477        7.59307        3.12485
H         10.48706        7.85637        2.80626
H         11.51233        7.17141        1.56823
H         11.18913        5.27634        0.16100
H         10.46691        4.75555       -2.09465
H          8.27556        3.84025       -2.48864
H          6.09466        3.32206        3.59822
H          5.75195        2.91031        1.89648
H          4.91425        4.99313        1.45156
H          4.12294        3.42922        4.85813
H          2.54723        4.22030        4.76169
H          5.31651        7.33791        4.83201
H          6.03374        6.71505        2.69797
H          8.25900        4.54628        4.12203
H          0.49438        3.77654        1.12254
H         -0.47123        3.91170        2.59494
H         -0.90156        1.93327        1.62275
H         -1.28708        2.38070        4.59561
H         -0.98434        1.01918        6.59390
H          0.52317       -0.87891        6.57324
H          1.76678       -1.45121        4.55873
H          1.13494        2.00158       -0.58860
H          2.74807        0.40741       -1.47768
H          3.58430       -1.39797       -0.09357
H          2.83646       -1.63952        2.21192
