67
*****
C         12.82439       -6.38925       -1.74786
C         12.54173       -5.88207       -3.15595
Si        12.44349       -3.99517       -3.33470
C         14.19423       -3.24458       -3.07735
C         15.31239       -3.90590       -3.87178
C         11.96281       -3.59914       -5.15819
C         10.56328       -4.01306       -5.58531
N         11.27813       -3.23393       -2.27948
C         10.03163       -3.69713       -1.90490
C          9.31911       -4.87068       -2.23016
C          8.05797       -5.08555       -1.67609
C          7.50202       -4.15731       -0.81185
C          8.19117       -2.97990       -0.49455
Br         7.33039       -1.79867        0.71806
C          9.47326       -2.72004       -1.05153
C         10.41574       -1.62679       -0.98080
C         10.23211       -0.31919       -0.24952
C         11.31513        0.76282       -0.48483
N         11.58362        1.19803       -1.86198
C         12.78223        2.02756       -2.00551
C         12.66865        3.24599       -1.08822
C         11.69643        3.18727        0.04033
C         11.08172        2.02574        0.31743
O         13.41248        4.22006       -1.18616
C         11.51535       -2.00691       -1.72687
O          9.38831        1.03984       -2.57859
C         10.56060        1.30506       -2.79670
O         11.02240        1.72571       -4.00319
C         10.13885        1.83129       -5.14963
C          9.04140        2.87570       -4.91831
C         11.04472        2.31851       -6.29122
C          9.56330        0.46273       -5.53313
H         12.85975       -7.45864       -1.75435
H         12.04794       -6.06206       -1.08835
H         13.76405       -6.00334       -1.41170
H         11.60639       -6.29325       -3.47373
H         13.37249       -6.19285       -3.75442
H         14.43713       -3.32240       -2.03819
H         14.13752       -2.23657       -3.43177
H         15.41782       -4.92390       -3.55959
H         16.22989       -3.38309       -3.69926
H         15.07517       -3.87541       -4.91470
H         12.66090       -4.09934       -5.79644
H         11.98366       -2.53218       -5.23601
H         10.47385       -5.07789       -5.53019
H         10.38762       -3.69195       -6.59076
H          9.84360       -3.56058       -4.93551
H          9.72880       -5.56543       -2.87397
H          7.53459       -5.94316       -1.91189
H          6.57313       -4.33435       -0.39852
H         10.20908       -0.53342        0.79856
H          9.32654        0.09764       -0.63822
H         12.17186        0.21131       -0.15811
H         12.87230        2.35227       -3.02106
H         13.64652        1.45685       -1.73681
H         11.49795        4.02972        0.60239
H         10.42241        1.99250        1.11067
H         12.37756       -1.45273       -1.84733
H          9.48906        3.81094       -4.65407
H          8.40075        2.55029       -4.12549
H          8.46816        2.99507       -5.81388
H         11.45463        3.27396       -6.03826
H         10.47097        2.40330       -7.19040
H         11.83934        1.61754       -6.43993
H          8.92926        0.10944       -4.74695
H         10.36370       -0.23100       -5.68479
H          8.99533        0.55476       -6.43526
