76
*****
Si        10.38689       -4.09122        4.97704
C         10.44531       -3.10525        6.63050
C         10.23980       -3.72643        8.01799
C         11.43544       -4.55606        8.48274
C         10.00008       -2.60622        9.04312
C          9.19182       -5.81183        5.10107
C          7.72708       -5.34292        5.29328
C          9.27902       -6.70662        3.84444
C          9.57744       -6.69789        6.30773
C         12.36267       -4.62466        4.39955
C         12.80531       -5.94913        5.03950
C         12.42462       -4.74965        2.85935
C         13.32833       -3.50370        4.84585
N          9.84223       -2.99938        3.67481
C          9.99863       -1.62148        3.58766
C         10.68238       -0.69259        4.40090
C         10.62058        0.66760        4.11191
C          9.89262        1.11887        3.02744
C          9.23476        0.21269        2.18220
I          8.17774        1.09566        0.59899
C          9.29884       -1.18985        2.43131
C          8.84944       -2.38402        1.76214
C          8.15339       -2.57027        0.44372
C          9.11693       -2.95220       -0.70449
N          8.32219       -3.33084       -1.90325
C          7.91169       -2.22834       -2.80341
C          9.01041       -1.24743       -3.12235
C         10.11623       -1.11835       -2.15231
C         10.12005       -1.88457       -1.05515
O          8.99303       -0.52319       -4.11381
C          9.22639       -3.45355        2.54993
O          7.60235       -5.06407       -3.60006
S          8.62716       -4.86092       -2.59084
C         10.30514       -4.70361       -3.40211
F         10.33057       -3.68597       -4.30756
F         11.28220       -4.43610       -2.48865
F         10.67293       -5.83682       -4.05909
O          8.70682       -5.78674       -1.47221
H          9.69568       -2.34707        6.54042
H         11.48461       -2.85496        6.67640
H          9.39664       -4.38104        7.94418
H         12.29614       -3.92583        8.56586
H         11.62894       -5.33212        7.77198
H         11.21868       -4.99129        9.43588
H         10.86218       -1.97409        9.08881
H          9.82183       -3.03648       10.00645
H          9.14937       -2.02840        8.74763
H          7.43857       -4.72670        4.46749
H          7.64828       -4.78234        6.20127
H          7.08319       -6.19601        5.34379
H          9.01913       -6.13298        2.97940
H          8.60130       -7.52859        3.94415
H         10.27703       -7.07793        3.73955
H          9.53103       -6.11768        7.20556
H         10.57198       -7.06931        6.17410
H          8.89624       -7.51998        6.37871
H         12.14161       -6.73145        4.73558
H         12.78213       -5.85564        6.10516
H         13.80052       -6.18286        4.72354
H         11.75956       -5.52351        2.53728
H         13.42349       -4.99074        2.56097
H         12.13367       -3.82117        2.41418
H         13.29471       -3.40710        5.91095
H         13.03452       -2.57916        4.39441
H         14.32435       -3.74872        4.54120
H         11.22930       -1.02249        5.21149
H         11.12113        1.34274        4.71078
H          9.83235        2.13147        2.83761
H          7.66263       -1.65510        0.18581
H          7.46133       -3.37794        0.56043
H          9.69721       -3.78018       -0.35433
H          7.11088       -1.69441       -2.33594
H          7.62488       -2.67968       -3.73019
H         10.87904       -0.44352       -2.31891
H         10.88670       -1.72845       -0.38218
H          9.06540       -4.44671        2.32029
