85
*****
Si         9.81051       -3.96511        5.14646
C         11.51598       -4.77407        4.76987
C         11.57531       -5.85179        3.66277
C         12.99389       -5.92096        3.08642
C         11.17284       -7.23905        4.16614
C         10.07361       -2.60978        6.48830
C         10.64407       -1.21495        6.16665
C         12.01498       -1.23927        5.49345
C          9.67661       -0.31295        5.40090
C          8.61541       -5.27003        5.92367
C          9.15508       -6.16423        7.06139
C          9.09211       -5.47526        8.42772
C          8.33743       -7.46002        7.12742
N          9.10909       -3.24671        3.71672
C          7.79546       -2.87344        3.51133
C          6.69119       -2.80733        4.38654
C          5.44300       -2.44547        3.88682
C          5.28495       -2.15317        2.54268
C          6.38256       -2.18159        1.66970
Br         6.01188       -1.75788       -0.14074
C          7.67882       -2.51722        2.14698
C          9.01041       -2.56579        1.59017
C          9.51663       -2.20025        0.22241
C         10.14123       -3.38110       -0.56453
N          9.15988       -4.19886       -1.27840
C          8.63899       -3.72655       -2.56395
C          9.68889       -3.08665       -3.45579
C         11.00065       -2.75170       -2.86504
C         11.17467       -2.87985       -1.54477
O          9.46751       -2.78167       -4.62639
C          9.85361       -2.97242        2.60848
O          8.94665       -5.66335        0.48753
C          8.58696       -5.27277       -0.61473
O          7.59716       -5.84923       -1.34254
C          6.85782       -6.99154       -0.84182
C          6.02909       -6.60633        0.38734
C          5.90339       -7.36442       -1.98712
C          7.77550       -8.18860       -0.56763
H         11.86060       -5.22790        5.67550
H         12.11762       -3.97179        4.39668
H         10.87231       -5.56450        2.90902
H         13.67816       -6.20951        3.85674
H         13.27097       -4.96056        2.70463
H         13.02283       -6.64108        2.29554
H         11.85859       -7.55637        4.92374
H         11.19379       -7.93363        3.35250
H         10.18462       -7.19752        4.57429
H         10.73164       -3.03768        7.21549
H          9.06517       -2.37366        6.75699
H         10.78351       -0.77840        7.13355
H         11.92573       -1.66989        4.51800
H         12.69068       -1.82472        6.08131
H         12.38886       -0.24024        5.40945
H          9.51003       -0.71656        4.42405
H         10.09564        0.66783        5.31488
H          8.74685       -0.25862        5.92768
H          8.29613       -5.91818        5.13445
H          7.84757       -4.68559        6.38599
H         10.18191       -6.36869        6.84069
H          8.07287       -5.25977        8.67187
H          9.65111       -4.56353        8.39353
H          9.50837       -6.12112        9.17237
H          7.31691       -7.22690        7.34901
H          8.73329       -8.09288        7.89402
H          8.39162       -7.96435        6.18528
H          6.80743       -3.02527        5.38854
H          4.63109       -2.39485        4.52184
H          4.34970       -1.91182        2.17924
H         10.26163       -1.44024        0.33310
H          8.66776       -1.87242       -0.34049
H         10.59723       -4.00784        0.17315
H          7.87378       -3.00362       -2.37229
H          8.27114       -4.58591       -3.08463
H         11.77402       -2.42260       -3.46389
H         12.09551       -2.61283       -1.16296
H         10.88005       -3.05476        2.54018
H          5.40620       -5.76946        0.14955
H          6.68447       -6.34590        1.19205
H          5.41766       -7.43454        0.67911
H          5.25387       -6.53942       -2.19302
H          5.32015       -8.21520       -1.70267
H          6.47161       -7.59826       -2.86310
H          8.44843       -7.94715        0.22847
H          8.33502       -8.41860       -1.45021
H          7.18355       -9.03554       -0.28978
