58
*****
C          4.83063       -7.21337        3.66661
Si         3.38423       -6.82417        2.52242
C          1.82021       -7.39971        3.40140
C          3.29415       -4.97172        2.26566
N          3.57704       -7.69965        1.02563
C          3.64297       -9.06978        0.86876
C          3.58500      -10.12383        1.80598
C          3.66412      -11.44044        1.36060
C          3.78941      -11.71716        0.00961
C          3.85279      -10.67808       -0.93298
I          3.98613      -11.29198       -2.93613
C          3.79584       -9.31777       -0.51354
C          3.86923       -8.02441       -1.16482
C          4.10611       -7.75472       -2.62982
C          4.41411       -6.29227       -3.03629
N          5.57845       -5.61353       -2.44712
C          5.67255       -4.18497       -2.76182
C          5.66253       -3.98298       -4.27549
C          5.13318       -5.08389       -5.12479
C          4.54707       -6.13955       -4.53885
O          5.97237       -2.91709       -4.80428
C          3.68934       -7.07030       -0.17942
O          6.81123       -7.52445       -2.01554
C          6.69550       -6.31160       -2.00400
O          7.64899       -5.47721       -1.50988
C          8.79400       -5.99538       -0.78343
C          9.63610       -6.96760       -1.61740
C          9.64888       -4.75646       -0.47528
C          8.33553       -6.62130        0.53894
H          4.71332       -6.67689        4.58494
H          5.74609       -6.92012        3.19667
H          4.85358       -8.26404        3.86776
H          1.70707       -6.85973        4.31820
H          1.89336       -8.44649        3.61069
H          0.97198       -7.21975        2.77447
H          3.17644       -4.48583        3.21168
H          2.45899       -4.73874        1.63866
H          4.19556       -4.63195        1.79990
H          3.48483       -9.92014        2.81271
H          3.62917      -12.21508        2.04158
H          3.83675      -12.69789       -0.30811
H          3.22767       -8.05857       -3.15983
H          4.99259       -8.30250       -2.87272
H          3.55403       -5.80935       -2.62163
H          6.58208       -3.79208       -2.35773
H          4.83540       -3.67458       -2.33336
H          5.21571       -5.03635       -6.15238
H          4.16733       -6.88579       -5.14214
H          3.64706       -6.05037       -0.33100
H          9.93350       -6.49113       -2.52813
H          9.05659       -7.83830       -1.84312
H         10.50601       -7.25198       -1.06307
H          9.97473       -4.31099       -1.39194
H         10.50113       -5.04610        0.10325
H          9.06614       -4.04951        0.07746
H          7.73869       -7.48594        0.33626
H          7.75648       -5.90910        1.08882
H          9.19147       -6.90569        1.11460
