93
*****
Si         7.85225        4.21054        5.20878
C          7.26030        2.56635        6.12655
C          7.86015        2.13883        7.32603
C          7.42422        0.97515        7.96251
C          6.38244        0.22807        7.41850
C          5.76865        0.64570        6.23994
C          6.19675        1.80995        5.59845
C          9.80344        4.07669        5.38292
C         10.45659        2.82791        5.37916
C         11.84824        2.74452        5.46964
C         12.61435        3.90276        5.55098
C         11.99031        5.14641        5.53056
C         10.59814        5.23530        5.43862
C          7.11810        5.73243        6.32011
C          7.57797        5.58309        7.79831
C          7.60963        7.11740        5.83954
C          5.56894        5.66450        6.33391
N          7.50072        4.06031        3.49232
C          6.87067        4.90294        2.59064
C          6.21416        6.13927        2.74621
C          5.68373        6.79926        1.64077
C          5.79836        6.25123        0.37815
C          6.43245        5.01421        0.19413
I          6.52932        4.36236       -1.79891
C          6.97026        4.30048        1.30529
C          7.61710        3.02916        1.49683
C          7.91844        1.90971        0.54355
C          9.43285        1.67874        0.30315
N          9.68459        0.34867       -0.26183
C          9.62916        0.16070       -1.70832
C         10.22760        1.30218       -2.51019
C         10.45352        2.59261       -1.82897
C         10.05973        2.74206       -0.55926
O         10.44426        1.21599       -3.71777
C          7.91790        2.93252        2.83887
C          9.53515       -0.71974        0.61389
O          9.38209       -1.91722       -0.01994
C          9.01532       -3.01877        0.83354
C          7.64346       -3.61119        0.46314
C          7.14645       -4.52061        1.58768
C          7.73607       -5.66921        2.09411
C          7.11074       -6.31186        3.16493
C          5.91749       -5.80854        3.70945
C          5.32358       -4.65490        3.18968
C          5.94264       -4.01521        2.12865
C          5.55115       -2.83693        1.38636
C          6.50768       -2.59493        0.37946
C          6.31716       -1.59185       -0.55864
C          5.18964       -0.77756       -0.44435
C          4.26008       -0.98662        0.58557
C          4.43147       -2.02823        1.50299
O          9.49214       -0.57755        1.83063
H          8.62877        2.69028        7.73852
H          7.87520        0.66781        8.83841
H          6.06539       -0.63440        7.88824
H          4.99478        0.09281        5.83937
H          5.73015        2.11807        4.73106
H          9.89882        1.96250        5.30855
H         12.30910        1.82117        5.47615
H         13.64169        3.83997        5.62618
H         12.55767        6.00684        5.58352
H         10.14783        6.16347        5.41129
H          8.64617        5.62346        7.84533
H          7.23920        4.64432        8.18411
H          7.16491        6.37874        8.38246
H          8.67946        7.13602        5.83989
H          7.23950        7.87537        6.49786
H          7.25006        7.29924        4.84831
H          5.25731        4.69751        6.66965
H          5.19557        5.83650        5.34603
H          5.18500        6.41263        6.99558
H          6.12571        6.55851        3.68506
H          5.20205        7.70337        1.76566
H          5.41441        6.75600       -0.43599
H          7.45874        2.13463       -0.39613
H          7.53425        1.01408        0.98531
H          9.89832        1.74057        1.26461
H          8.60341        0.05286       -1.99311
H         10.21509       -0.70747       -1.92707
H         10.91086        3.37183       -2.32765
H         10.19824        3.67106       -0.13171
H          8.38787        2.12904        3.28449
H          8.97931       -2.67316        1.84555
H          9.74891       -3.78785        0.70996
H          7.82607       -4.07888       -0.48175
H          8.61158       -6.03839        1.69136
H          7.53055       -7.16729        3.56119
H          5.47389       -6.29668        4.50315
H          4.44453       -4.28843        3.58716
H          6.99428       -1.45055       -1.32452
H          5.03826       -0.01511       -1.12317
H          3.44056       -0.36472        0.66709
H          3.73915       -2.19123        2.25075
