85
*****
Si         9.61531       -4.22057        4.79749
C          9.10020       -4.27732        6.65737
C          9.05057       -2.96433        7.46690
C          7.91650       -2.02747        7.05101
C          8.90633       -3.29371        8.95799
C          9.67494       -6.27360        4.19130
C          8.31511       -6.92250        4.53740
C          9.88976       -6.35652        2.66595
C         10.79023       -7.01465        4.94914
C         11.55938       -3.43808        4.69850
C         12.35347       -3.87822        5.95403
C         12.32686       -3.90986        3.44894
C         11.48326       -1.89072        4.69434
N          8.48053       -3.45270        3.70354
C          7.09727       -3.42973        3.77629
C          6.18931       -4.00223        4.69218
C          4.82421       -3.76453        4.55910
C          4.35173       -2.95862        3.53980
C          5.23471       -2.40074        2.60271
I          4.34390       -1.13207        1.18655
C          6.63360       -2.66044        2.68117
C          7.79022       -2.36079        1.87036
C          7.85057       -1.70435        0.51304
C          8.97459       -2.23172       -0.41820
N          9.05625       -3.68191       -0.63662
C         10.28729       -4.12023       -1.29545
C         10.43902       -3.37840       -2.62549
C          9.65369       -2.12597       -2.82745
C          8.98324       -1.59617       -1.79098
O         11.24982       -3.71953       -3.48464
C          8.89059       -2.82729        2.56388
O          6.76612       -4.00764       -0.71675
C          7.90408       -4.44935       -0.76968
O          8.19100       -5.76382       -0.95778
C          7.13334       -6.75318       -1.04781
C          6.23202       -6.50442       -2.26249
C          7.86891       -8.08672       -1.25071
C          6.33211       -6.83112        0.25737
H          9.79305       -4.92423        7.15372
H          8.07925       -4.59624        6.62829
H          9.96645       -2.44853        7.26689
H          6.97568       -2.50326        7.23371
H          8.00514       -1.80073        6.00908
H          7.97487       -1.12264        7.61915
H          7.98229       -3.80767        9.12196
H          8.91584       -2.38702        9.52608
H          9.72025       -3.91620        9.26611
H          7.53323       -6.41281        4.01415
H          8.14407       -6.85172        5.59126
H          8.32684       -7.95208        4.24632
H          9.10133       -5.83392        2.16580
H          9.88769       -7.38205        2.36070
H         10.82928       -5.91110        2.41335
H         10.61582       -6.94070        6.00224
H         11.73603       -6.57382        4.71243
H         10.79444       -8.04477        4.65979
H         12.41918       -4.94592        5.97832
H         11.85150       -3.53168        6.83315
H         13.33811       -3.46101        5.91768
H         12.38240       -4.97842        3.44681
H         13.31571       -3.50134        3.46235
H         11.81555       -3.57753        2.56972
H         10.95088       -1.55748        5.56062
H         10.97308       -1.56108        3.81346
H         12.47324       -1.48488        4.70608
H          6.53718       -4.59698        5.46048
H          4.16141       -4.19203        5.22466
H          3.34051       -2.76563        3.46753
H          8.00359       -0.65527        0.65765
H          6.92549       -1.93427        0.02698
H          9.82287       -1.94074        0.16546
H         10.24038       -5.17371       -1.47677
H         11.12657       -3.90628       -0.66717
H          9.62585       -1.67154       -3.75360
H          8.45393       -0.72233       -1.93674
H          9.87234       -2.71884        2.26485
H          6.83132       -6.45754       -3.14767
H          5.71003       -5.57903       -2.13575
H          5.52556       -7.30306       -2.35195
H          8.43347       -8.04805       -2.15883
H          7.15574       -8.88236       -1.30770
H          8.52980       -8.25845       -0.42692
H          5.81332       -5.90834        0.41304
H          6.99899       -7.00775        1.07527
H          5.62494       -7.63166        0.19449
