85
*****
Si         9.81140       -3.88751        5.24261
C         11.39579       -4.80981        4.67848
C         11.24320       -6.05407        3.77396
C         12.45441       -6.16729        2.84022
C         11.11472       -7.34800        4.57894
C         10.30958       -2.47316        6.43805
C         10.96044       -1.16415        5.94718
C         12.25261       -1.36651        5.15795
C         10.00579       -0.24462        5.18655
C          8.66441       -5.09538        6.24225
C          9.26255       -5.82405        7.46310
C          9.19773       -4.97731        8.73738
C          8.49459       -7.12963        7.70901
N          8.88046       -3.25448        3.90403
C          7.63845       -2.65306        3.96373
C          6.84640       -2.24603        5.05843
C          5.60111       -1.66964        4.82374
C          5.14254       -1.49223        3.52884
C          5.92365       -1.88689        2.43081
I          5.08998       -1.49804        0.54411
C          7.20288       -2.48006        2.63106
C          8.24971       -3.00607        1.77746
C          8.21121       -3.16336        0.27828
C          9.34986       -4.00179       -0.35965
N          8.88560       -4.74145       -1.53732
C          8.79925       -4.05466       -2.82493
C          9.95500       -3.10740       -3.09563
C         10.84634       -2.74842       -1.97247
C         10.53898       -3.15264       -0.73411
O         10.13369       -2.57965       -4.19193
C          9.29454       -3.36307        2.60905
O          8.09192       -6.43260       -0.19524
C          8.17482       -5.91134       -1.29987
O          7.56769       -6.38526       -2.41670
C          6.72258       -7.56404       -2.35815
C          5.50549       -7.32999       -1.45506
C          6.23033       -7.76096       -3.79990
C          7.51780       -8.80587       -1.93964
H         11.91029       -5.12343        5.56269
H         11.90661       -4.09957        4.06242
H         10.34233       -5.92528        3.21116
H         13.34292       -6.29527        3.42251
H         12.53742       -5.27598        2.25405
H         12.32798       -7.00960        2.19258
H         12.00492       -7.50110        5.15252
H         10.97516       -8.17164        3.91033
H         10.27417       -7.27658        5.23718
H         10.99665       -2.90284        7.13676
H          9.35595       -2.12908        6.78026
H         11.22321       -0.66752        6.85779
H         12.03321       -1.86253        4.23559
H         12.93097       -1.96322        5.73124
H         12.69874       -0.41554        4.95419
H          9.72002       -0.70978        4.26630
H         10.49451        0.68453        4.97982
H          9.13444       -0.06479        5.78095
H          8.32312       -5.84606        5.56041
H          7.90788       -4.46169        6.65575
H         10.29131       -6.01701        7.24100
H          8.17542       -4.77246        8.97786
H          9.71870       -4.05600        8.58030
H          9.65376       -5.51182        9.54437
H          7.47147       -6.90575        7.92812
H          8.93092       -7.64972        8.53606
H          8.54589       -7.74377        6.83431
H          7.18716       -2.37447        6.02405
H          5.01566       -1.37251        5.61997
H          4.21663       -1.06531        3.36934
H          8.24802       -2.18449       -0.15225
H          7.31177       -3.70562        0.07366
H          9.65658       -4.70207        0.38897
H          7.88983       -3.49126       -2.84595
H          8.83233       -4.80957       -3.58250
H         11.69820       -2.19099       -2.14166
H         11.16862       -2.85856        0.02884
H         10.23292       -3.66234        2.30096
H          4.98144       -6.45630       -1.78211
H          5.83171       -7.19312       -0.44524
H          4.85409       -8.17722       -1.50771
H          5.67257       -6.90100       -4.10694
H          5.60469       -8.62767       -3.84793
H          7.07084       -7.89139       -4.44907
H          7.86795       -8.68364       -0.93597
H          8.35335       -8.93225       -2.59598
H          6.88721       -9.66854       -1.99484
