89
*****
Si        10.63036       -4.73319        4.93526
C         10.12379       -5.25263        6.72155
C         10.93154       -6.29507        7.52411
C         11.73364       -5.65207        8.66140
C          9.98632       -7.33681        8.14086
C         10.48470       -6.45443        3.68682
C          8.97996       -6.67130        3.38610
C         11.25207       -6.27278        2.36660
C         11.02528       -7.70240        4.40891
C         12.59517       -4.00614        4.91964
C         13.59347       -5.13211        5.24854
C         12.99717       -3.36800        3.57393
C         12.68779       -2.89627        5.99503
N          9.54653       -3.52870        4.20758
C          8.34427       -3.02095        4.68267
C          7.68024       -3.14801        5.92088
C          6.43686       -2.55153        6.11599
C          5.83347       -1.84219        5.09586
C          6.47498       -1.69296        3.85849
I          5.37676       -0.63717        2.41479
C          7.76384       -2.25976        3.63403
C          8.70978       -2.26967        2.54888
C          8.65990       -1.60432        1.20252
C          9.01934       -0.10272        1.23647
N         10.40616        0.12191        1.75740
C         11.47063       -0.12447        0.74727
C         11.24870        0.61751       -0.54779
C          9.84939        0.89106       -0.94409
C          8.85420        0.52163       -0.12729
O         12.15960        0.90124       -1.32169
C          9.76439       -3.06662        2.94306
S         10.63964        1.54402        2.66775
C          9.66138        1.26182        4.13258
C         10.21420        0.53044        5.18890
C          9.49379        0.35816        6.38055
C         10.09430       -0.41283        7.53328
F         11.41072       -0.12625        7.72897
F          9.47936       -0.16383        8.72310
F         10.02888       -1.75987        7.35650
C          8.20470        0.91110        6.47836
C          7.64460        1.65497        5.42374
C          6.26715        2.25887        5.57349
F          5.36224        1.37543        6.07969
F          6.26089        3.32682        6.41587
F          5.73974        2.70030        4.39896
C          8.39654        1.84677        4.25532
O         12.02082        1.58754        3.09678
O         10.04871        2.64670        1.94185
H          9.12623       -5.63343        6.65250
H         10.29631       -4.35454        7.27705
H         11.61040       -6.75441        6.83632
H         11.06213       -5.18994        9.35451
H         12.39446       -4.91327        8.25842
H         12.30418       -6.40422        9.16504
H          9.31910       -6.85319        8.82338
H         10.55976       -8.07321        8.66410
H          9.42160       -7.80976        7.36477
H          8.58911       -5.81128        2.88360
H          8.45050       -6.81932        4.30407
H          8.86135       -7.53303        2.76300
H         10.88392       -5.40739        1.85623
H         11.11191       -7.13655        1.75083
H         12.29431       -6.14802        2.57411
H         10.49763       -7.83820        5.32980
H         12.06813       -7.57383        4.61099
H         10.88573       -8.56236        3.78771
H         13.52654       -5.89704        4.50335
H         13.36047       -5.54662        6.20708
H         14.58688       -4.73486        5.26367
H         12.94616       -4.10532        2.80020
H         13.99628       -2.99118        3.64222
H         12.32788       -2.56489        3.34597
H         12.41556       -3.29945        6.94805
H         12.02172       -2.09800        5.74202
H         13.69012       -2.52429        6.03827
H          8.11780       -3.68540        6.68560
H          5.96332       -2.64010        7.02865
H          4.90411       -1.41926        5.24567
H          7.66857       -1.70531        0.81268
H          9.39193       -2.08653        0.58893
H          8.33888        0.37389        1.91079
H         11.50259       -1.17304        0.53661
H         12.39001        0.23186        1.16280
H          9.64275        1.36100       -1.83935
H          7.88980        0.67769       -0.45987
H         10.59373       -3.28102        2.36752
H         11.15448        0.11640        5.09156
H          7.65794        0.76826        7.34188
H          8.01648        2.41975        3.48573
