74
*****
Si        10.30227       -4.07159        4.73414
C          8.94238       -5.45817        5.30173
C          9.47221       -6.41517        6.37297
C          7.61044       -4.85446        5.75334
C         11.85507       -5.09647        4.06194
C         11.50359       -6.28563        3.15933
C         12.92317       -4.21681        3.40113
C         10.86282       -3.07243        6.34552
C         11.85942       -3.84176        7.22603
C         11.47146       -1.69808        6.02221
N          9.52249       -3.05669        3.53749
C          8.64965       -2.00147        3.75476
C          8.07437       -1.47443        4.93170
C          7.25194       -0.35177        4.85595
C          7.00021        0.25299        3.63632
C          7.55212       -0.26657        2.45844
Br         7.14724        0.66785        0.85560
C          8.37540       -1.42496        2.49439
C          9.05270       -2.23133        1.51381
C          9.09457       -2.07748        0.02093
C         10.23370       -1.14596       -0.44982
N         11.54908       -1.83264       -0.32834
C         11.91940       -2.73560       -1.43794
C         11.74494       -2.11149       -2.79901
C         10.70055       -1.07564       -2.94675
C         10.01310       -0.68032       -1.86813
O         12.37661       -2.47505       -3.78804
C          9.70915       -3.23456        2.19869
O         13.91514       -1.92483        0.61016
S         12.79690       -1.01567        0.47167
C         13.27217        0.24090       -0.69560
C         12.70332        1.51570       -0.61044
C         13.08286        2.49904       -1.52374
C         14.03349        2.21189       -2.50473
C         14.61735        0.94574       -2.56975
C         14.24633       -0.04209       -1.65805
O         12.24142       -0.34796        1.62919
H          8.75826       -6.02420        4.41257
H          9.66429       -5.87090        7.27395
H         10.37883       -6.86807        6.02971
H          8.74381       -7.17535        6.56389
H          7.76254       -4.28062        6.64355
H          6.91135       -5.64014        5.95055
H          7.22626       -4.22058        4.98166
H         12.27240       -5.51229        4.95515
H         11.07934       -5.92632        2.24510
H         10.79612       -6.91487        3.65776
H         12.39010       -6.84530        2.94541
H         12.52767       -3.78908        2.50362
H         13.77984       -4.81278        3.16481
H         13.20733       -3.43475        4.07384
H          9.95024       -2.93789        6.88774
H         12.77533       -3.98045        6.69051
H         11.44744       -4.79574        7.48114
H         12.04959       -3.28487        8.11969
H         12.38425       -1.83089        5.47991
H         11.67086       -1.17312        6.93301
H         10.78286       -1.13375        5.42869
H          8.26209       -1.91865        5.84408
H          6.82763        0.03142        5.71511
H          6.40163        1.09262        3.59470
H          8.16126       -1.67026       -0.30771
H          9.27341       -3.04517       -0.39919
H         10.23369       -0.28284        0.18257
H         11.30462       -3.60969       -1.38394
H         12.95839       -2.96546       -1.32583
H         10.50355       -0.66176       -3.87137
H          9.26030        0.00878       -2.02128
H         10.25392       -3.99703        1.76638
H         12.00818        1.72709        0.12245
H         12.66067        3.43943       -1.47425
H         14.30578        2.93881       -3.18479
H         15.32420        0.74047       -3.29311
H         14.68718       -0.97452       -1.69337
