75
*****
Si         9.13676        0.76307        8.01995
C         10.24733       -0.77703        8.48865
C         11.50094       -0.62622        9.10689
C         12.26385       -1.74653        9.44688
C         11.78788       -3.02884        9.18329
C         10.54331       -3.19771        8.58427
C          9.77454       -2.08329        8.24457
C         10.38150        2.22800        8.02759
C         11.37344        2.27584        7.02266
C         12.31280        3.30790        6.98180
C         12.27869        4.31616        7.93799
C         11.30720        4.29025        8.93498
C         10.36702        3.25513        8.98279
C          7.71495        0.84813        9.50263
C          8.40581        0.72179       10.88518
C          6.87289        2.13591        9.48487
C          6.74892       -0.35282        9.33739
N          8.50604        0.62310        6.38698
C          7.58757        1.43250        5.74404
C          6.95843        2.63387        6.12346
C          5.98263        3.18862        5.29673
C          5.65298        2.58443        4.09476
C          6.33457        1.43852        3.66614
Br         5.82920        0.73244        1.98164
C          7.34530        0.85586        4.47566
C          8.31438       -0.19490        4.30904
C          8.66189       -1.00624        3.09297
C          7.93584       -2.36500        2.94699
N          8.52295       -3.15585        1.85450
C          9.73609       -3.93520        2.11714
C          9.78050       -4.59195        3.48535
C          8.75165       -4.21749        4.47501
C          7.93142       -3.19523        4.20727
O         10.66545       -5.38117        3.81038
C          9.01824       -0.27890        5.49501
C          8.16681       -2.82353        0.55825
O          8.97026       -3.40870       -0.36871
C          8.68018       -3.11866       -1.75512
C          7.98138       -4.28821       -2.46861
Cl         6.38948       -4.66037       -1.74627
Cl         7.73936       -3.86887       -4.19735
Cl         9.00306       -5.76288       -2.39200
O          7.25060       -2.06727        0.26975
H         11.86056        0.31926        9.31122
H         13.18492       -1.62320        9.89570
H         12.35758       -3.85262        9.43197
H         10.18850       -4.14734        8.39108
H          8.84841       -2.21681        7.80927
H         11.40421        1.53425        6.30563
H         13.03217        3.32218        6.24199
H         12.97086        5.08107        7.90903
H         11.28037        5.03987        9.64377
H          9.65467        3.24723        9.72946
H          9.07956        1.54144       11.02345
H          8.94990       -0.19849       10.92925
H          7.66465        0.73525       11.65681
H          7.51563        2.98391        9.59746
H          6.16867        2.11271       10.29013
H          6.34882        2.20658        8.55468
H          7.30870       -1.26467        9.34618
H          6.22568       -0.26446        8.40824
H          6.04553       -0.35833       10.14369
H          7.21778        3.10010        7.00685
H          5.50219        4.05612        5.58247
H          4.90008        2.98133        3.51112
H          9.71394       -1.19960        3.11940
H          8.34229       -0.41987        2.25696
H          6.91807       -2.11834        2.72742
H         10.57823       -3.28044        2.03356
H          9.74884       -4.72836        1.39906
H          8.66611       -4.73762        5.36223
H          7.23291       -2.95254        4.92714
H          9.80551       -0.92034        5.67883
H          9.59919       -2.90809       -2.26105
H          8.01612       -2.28000       -1.77942
