76
*****
Si         9.61294       -3.83907        5.40503
C          8.83909       -3.84100        7.18250
C          9.35763       -4.94578        8.11170
C          8.98254       -2.50348        7.92535
C         10.04628       -5.72655        4.80060
C         11.06734       -6.46192        5.67304
C          8.77015       -6.56029        4.62706
C         11.39976       -2.89008        5.46422
C         12.36307       -3.29129        4.34064
C         11.23788       -1.36279        5.46140
N          8.66216       -3.12505        4.10693
C          7.44079       -2.47835        4.14414
C          6.59425       -2.10337        5.20705
C          5.39361       -1.44660        4.94606
C          5.02144       -1.15635        3.64695
C          5.84255       -1.52769        2.57298
I          5.12746       -0.98236        0.67358
C          7.07539       -2.20726        2.80177
C          8.11715       -2.75809        1.96106
C          8.12568       -2.83343        0.45457
C          9.26151       -3.65874       -0.20667
N          8.75468       -4.51974       -1.27876
C          8.51634       -3.94708       -2.60232
C          9.57883       -2.95449       -3.04231
C         10.53441       -2.45325       -2.03120
C         10.35788       -2.77423       -0.74375
O          9.62970       -2.50543       -4.18606
C          9.08917       -3.24258        2.81175
O          8.19924       -6.14161        0.25479
C          8.14463       -5.70503       -0.88725
O          7.46730       -6.29922       -1.90167
C          6.71379       -7.51864       -1.67305
C          5.58245       -7.29395       -0.66219
C          6.09032       -7.85125       -3.03692
C          7.63167       -8.67468       -1.25984
H          7.80764       -4.02871        6.96851
H         10.38942       -4.76983        8.33387
H          9.25348       -5.89533        7.62963
H          8.79171       -4.94283        9.01980
H         10.01566       -2.32168        8.13632
H          8.43301       -2.54418        8.84256
H          8.59883       -1.71325        7.31444
H         10.52315       -5.60899        3.84998
H         10.65687       -6.61664        6.64899
H         11.95891       -5.87534        5.74998
H         11.29977       -7.40767        5.22982
H          8.29048       -6.67992        5.57601
H          9.02329       -7.52177        4.23164
H          8.10665       -6.06064        3.95251
H         11.83515       -3.20929        6.38804
H         11.95843       -2.98654        3.39814
H         12.49454       -4.35317        4.34576
H         13.30842       -2.81412        4.49399
H         10.80219       -1.05202        4.53485
H         12.19678       -0.90227        5.57684
H         10.60188       -1.07004        6.27054
H          6.86431       -2.31571        6.18019
H          4.77773       -1.17488        5.72829
H          4.13318       -0.66299        3.46632
H          8.19603       -1.83271        0.08240
H          7.22406       -3.34962        0.19861
H          9.67006       -4.27763        0.56466
H          7.57151       -3.44512       -2.58736
H          8.53913       -4.75739       -3.30073
H         11.33038       -1.86119       -2.31566
H         11.02765       -2.38396       -0.06249
H          9.99780       -3.63325        2.51716
H          4.96844       -6.48086       -0.98897
H          6.00037       -7.06288        0.29533
H          4.98924       -8.18134       -0.58770
H          5.44602       -7.05216       -3.33896
H          5.52423       -8.75591       -2.95923
H          6.86642       -7.97738       -3.76264
H          8.07390       -8.45701       -0.31012
H          8.40202       -8.79772       -1.99218
H          7.05982       -9.57625       -1.18877
