79
*****
Si         9.20301        5.07346        6.64202
C          9.14234        4.00751        8.30549
C         10.11486        4.15615        9.31129
C         10.04319        3.40135       10.48365
C          8.99852        2.49991       10.67387
C          8.01809        2.35446        9.69521
C          8.08237        3.10532        8.51974
C         11.11419        5.10593        6.24122
C         11.95235        4.01975        6.55865
C         13.30861        4.03637        6.22411
C         13.85209        5.12743        5.55474
C         13.03717        6.20014        5.20986
C         11.67911        6.18713        5.54093
C          8.53571        6.91057        7.17941
C          9.38219        7.45208        8.36669
C          8.65061        7.94922        6.04025
C          7.07605        6.80374        7.69065
N          8.43361        4.14415        5.36337
C          7.47103        4.48050        4.42518
C          6.69396        5.63734        4.21994
C          5.82371        5.71565        3.13269
C          5.72064        4.66618        2.23890
C          6.46768        3.49955        2.43287
Br         6.27266        2.15011        1.11014
C          7.33817        3.37150        3.55095
C          8.16819        2.32111        4.07518
C          8.33457        0.90450        3.60564
C          9.56386        0.69746        2.69299
N         10.81377        0.65629        3.50105
C         11.10101       -0.62314        4.18587
C         10.98667       -1.82327        3.27898
C         10.07850       -1.72141        2.11570
C          9.42879       -0.57280        1.88864
O         11.55902       -2.88723        3.50306
C          8.82331        2.84218        5.16922
O         13.16284        1.51244        3.98711
S         12.13797        1.56825        2.96590
C         12.74075        0.63510        1.57306
C         12.29883        0.94870        0.28411
C         12.78305        0.22102       -0.80297
C         13.71187       -0.80175       -0.60204
C         14.17019       -1.09350        0.68344
C         13.69433       -0.36820        1.77503
O         11.65182        2.83269        2.45793
H         10.88714        4.82828        9.18148
H         10.76644        3.51166       11.21150
H          8.95094        1.94005       11.53950
H          7.24190        1.68979        9.83934
H          7.34784        2.99839        7.80277
H         11.55887        3.19933        7.04560
H         13.90961        3.23573        6.47474
H         14.85577        5.14098        5.31500
H         13.43635        7.00859        4.70778
H         11.08182        6.98301        5.26735
H         10.40409        7.54447        8.06324
H          9.31496        6.77359        9.19134
H          9.00982        8.41067        8.66224
H          9.66606        8.00239        5.70715
H          8.34255        8.90869        6.39998
H          8.02277        7.65551        5.22511
H          7.02558        6.07962        8.47678
H          6.43767        6.50234        6.88658
H          6.75744        7.75553        8.06145
H          6.76882        6.43000        4.87654
H          5.25226        6.56379        2.99444
H          5.09023        4.74368        1.42552
H          7.45748        0.62304        3.06122
H          8.48373        0.30020        4.47597
H          9.61529        1.52511        2.01679
H         10.40795       -0.73972        4.99270
H         12.11387       -0.57942        4.52805
H          9.94695       -2.52780        1.48526
H          8.77540       -0.55424        1.09004
H          9.50344        2.33160        5.75382
H         11.62002        1.71222        0.13824
H         12.45441        0.43890       -1.75667
H         14.06099       -1.34432       -1.40750
H         14.86153       -1.84631        0.82613
H         14.04310       -0.57009        2.72509
