77
*****
C         10.19509        6.19214        7.75336
Si         8.50266        5.96371        8.54593
C          8.60171        4.81862       10.01556
C          7.94589        7.93855        9.24813
C          6.61631        7.80262       10.02258
C          9.12452        8.54012       10.11188
C          9.05663       10.07285       10.22801
C          9.21790        7.97884       11.53774
C          7.69331        8.76892        7.95800
N          7.28573        5.50290        7.37751
C          6.08745        4.85569        7.60046
C          5.44257        4.45817        8.79046
C          4.22285        3.79067        8.72001
C          3.64335        3.51608        7.49304
C          4.26761        3.91541        6.30063
I          3.24183        3.41427        4.53864
C          5.51158        4.61005        6.33234
C          6.40764        5.18095        5.34348
C          6.22699        5.18737        3.84819
C          7.28020        5.92908        2.98792
N          8.61719        5.27334        3.03829
C          8.73096        4.01142        2.26896
C          8.28025        4.17883        0.83587
C          7.24791        5.20415        0.55497
C          6.80461        5.98139        1.55246
O          8.70520        3.48805       -0.08610
C          7.46069        5.73274        6.04362
S          9.99672        6.25974        3.10501
C         10.18485        6.86499        1.43744
C          9.54415        8.04882        1.05641
C          9.68723        8.53707       -0.25110
C          8.98638        9.81001       -0.66879
F          7.74747        9.92661       -0.11448
F          9.67266       10.92430       -0.30249
F          8.80144        9.90115       -2.01402
C         10.51552        7.84050       -1.14898
C         11.18763        6.66530       -0.76395
C         12.09745        5.95705       -1.74422
F         11.52512        5.80780       -2.97006
F         13.25436        6.64306       -1.95198
F         12.46466        4.71066       -1.34297
C         11.02333        6.18817        0.54467
O          9.70859        7.40883        3.93607
O         11.13849        5.41542        3.38165
H         10.90511        6.47261        8.50310
H         10.13998        6.95934        7.00954
H         10.50203        5.27430        7.29700
H          9.36363        5.16138       10.68406
H          8.83830        3.82986        9.68199
H          7.66001        4.80791       10.52348
H          6.77899        7.23227       10.91316
H          5.89469        7.30622        9.40796
H          6.25424        8.77522       10.28307
H          9.99487        8.24185        9.56561
H          8.18091       10.35054       10.77656
H          9.01579       10.50324        9.24923
H          9.92597       10.43068       10.73899
H          8.35168        8.27134       12.09363
H         10.09483        8.36301       12.01555
H          9.27228        6.91096       11.49784
H          6.89053        8.33029        7.40298
H          8.57966        8.77518        7.35864
H          7.43593        9.77271        8.22459
H          5.87191        4.66074        9.70679
H          3.74750        3.49861        9.58821
H          2.74326        3.01271        7.45455
H          5.27752        5.63698        3.64506
H          6.32738        4.16066        3.56413
H          7.38829        6.91523        3.38882
H          8.12335        3.26548        2.73721
H          9.76103        3.72198        2.25960
H          6.87384        5.31856       -0.40002
H          6.07631        6.67522        1.32184
H          8.25587        6.23971        5.62447
H          8.96533        8.56379        1.73818
H         10.63297        8.19827       -2.10983
H         11.52126        5.33717        0.84944
