64
*****
C          5.38984      -10.44562       -5.43011
Si         6.74568       -9.34408       -4.72905
C          7.27689       -9.93008       -3.03993
C          8.41614       -9.58045       -6.09437
C          9.60722       -8.78416       -5.51667
C          8.71750      -11.11869       -6.29349
C          9.50006      -11.41039       -7.58577
C          9.48944      -11.76949       -5.13702
C          7.95433       -8.90540       -7.41692
N          6.31700       -7.64993       -4.78712
C          6.82235       -6.61333       -4.02866
C          7.83504       -6.56528       -3.04771
C          8.12162       -5.35557       -2.41704
C          7.41934       -4.20747       -2.74462
C          6.42059       -4.24044       -3.72652
Br         5.51928       -2.60409       -4.06909
C          6.11095       -5.45235       -4.40343
C          5.19561       -5.83175       -5.45972
C          4.25556       -4.92203       -6.20578
C          3.57294       -5.47310       -7.48272
N          2.55598       -6.51903       -7.18037
C          1.29297       -6.02864       -6.57014
C          0.71542       -4.80768       -7.24694
C          1.60328       -4.01692       -8.12915
C          2.90007       -4.33961       -8.21882
O         -0.44084       -4.43285       -7.07193
C          5.35378       -7.19000       -5.63992
O          1.55887       -8.80598       -7.59876
S          2.44155       -7.85201       -8.24894
C          1.63357       -7.20287       -9.80577
F          0.43995       -6.60222       -9.54090
F          2.41077       -6.27267      -10.43047
F          1.39190       -8.18950      -10.71176
O          3.80564       -8.25544       -8.54959
H          5.69681      -11.46906       -5.37334
H          5.20987      -10.18338       -6.45175
H          4.49211      -10.31057       -4.86376
H          7.52188      -10.97072       -3.08417
H          6.47856       -9.78092       -2.34328
H          8.13498       -9.37480       -2.72330
H          9.93311       -9.24073       -4.60549
H          9.30216       -7.77725       -5.32186
H         10.41138       -8.78298       -6.22252
H          7.73859      -11.54813       -6.34054
H         10.47447      -10.97341       -7.51899
H          8.97807      -10.99215       -8.42094
H          9.59182      -12.46846       -7.71603
H         10.47086      -11.34691       -5.08085
H          9.56405      -12.82336       -5.30641
H          8.97145      -11.59178       -4.21778
H          7.76122       -7.86806       -7.23937
H          7.06119       -9.37973       -7.76652
H          8.72281       -9.00392       -8.15491
H          8.35938       -7.41866       -2.79903
H          8.86300       -5.31507       -1.70030
H          7.63348       -3.32095       -2.26165
H          4.81216       -4.05402       -6.49153
H          3.44933       -4.75185       -5.52319
H          4.33691       -5.92240       -8.08220
H          1.48653       -5.78551       -5.54626
H          0.57253       -6.81220       -6.67925
H          1.22603       -3.22350       -8.67061
H          3.48830       -3.76570       -8.84303
H          4.82716       -7.76817       -6.31328
