79
*****
C         12.64641       -4.20107        3.00199
C         11.99898       -4.98444        1.86713
Si        12.91511       -4.95425        0.20304
C         14.74785       -5.44405        0.47341
C         14.96560       -6.77949        1.17349
C         12.15232       -6.31383       -0.92696
C         10.72496       -6.03868       -1.38121
N         12.81327       -3.41937       -0.62327
C         13.38680       -3.08360       -1.83563
C         14.18542       -3.83215       -2.72702
C         14.65403       -3.23695       -3.89368
C         14.34129       -1.91973       -4.18061
C         13.53933       -1.16327       -3.30929
I         13.19179        0.81141       -3.92377
C         13.03194       -1.74033       -2.10892
C         12.18277       -1.31439       -1.01889
C         11.47258       -0.01133       -0.77923
C          9.95389       -0.07234       -1.08042
N          9.26460        1.15154       -0.66699
C          9.23035        2.29922       -1.57783
C          9.04298        1.92992       -3.03878
C          9.20016        0.51414       -3.42816
C          9.63654       -0.36981       -2.52370
O          8.83140        2.76888       -3.91290
C         12.08265       -2.37808       -0.14014
C          8.98850        1.30856        0.68198
O          8.51586        2.54474        0.97000
C          8.21019        2.78697        2.35357
C          7.52667        4.15004        2.51534
C          6.22442        4.26953        1.73050
C          5.08730        3.48063        1.81885
C          4.00878        3.78668        0.98693
C          4.07656        4.86571        0.09018
C          5.22414        5.66092        0.01044
C          6.29520        5.35948        0.83534
C          7.58890        5.99603        0.96958
C          8.33914        5.31067        1.95081
C          9.62215        5.71305        2.28964
C         10.16230        6.81535        1.62435
C          9.42275        7.49618        0.64306
C          8.12712        7.08879        0.31038
O          9.16600        0.43733        1.52527
H         12.04674       -4.28926        3.88375
H         12.72404       -3.17045        2.72505
H         13.62320       -4.59327        3.19424
H         11.02012       -4.58231        1.70894
H         12.00757       -6.00708        2.18185
H         15.21072       -4.68127        1.06402
H         15.17483       -5.54706       -0.50229
H         14.55588       -6.73551        2.16096
H         16.01406       -6.98516        1.23120
H         14.47980       -7.55574        0.62002
H         12.15769       -7.23744       -0.38676
H         12.75111       -6.34020       -1.81332
H         10.08003       -6.00187       -0.52820
H         10.40303       -6.81936       -2.03831
H         10.68897       -5.10148       -1.89626
H         14.42005       -4.81441       -2.51456
H         15.23784       -3.78038       -4.54856
H         14.70170       -1.48744       -5.04563
H         11.91288        0.73509       -1.40684
H         11.57892        0.21926        0.26021
H          9.59181       -0.89366       -0.49798
H         10.15382        2.83112       -1.48208
H          8.38158        2.88783       -1.29849
H          8.97564        0.20966       -4.38832
H          9.76764       -1.34248       -2.84269
H         11.54184       -2.38132        0.73880
H          9.11629        2.77644        2.92259
H          7.54932        2.02179        2.70376
H          7.39321        4.20308        3.57566
H          5.03974        2.69008        2.48052
H          3.15174        3.21350        1.03132
H          3.26907        5.07433       -0.51766
H          5.27189        6.45419       -0.64794
H         10.16213        5.21228        3.01260
H         11.11618        7.13372        1.85625
H          9.84105        8.30744        0.16150
H          7.58444        7.59077       -0.40972
