71
*****
C         13.48449       -8.11356        3.41207
C         13.58005       -7.06626        4.51415
Si        11.93334       -6.33470        5.11890
C         10.72235       -7.75939        5.54259
C         11.24279       -8.77290        6.55385
C         12.26015       -5.39224        6.76364
C         13.07918       -4.11652        6.61531
N         11.19579       -5.23883        3.97775
C         10.01578       -4.53631        4.13816
C          9.06808       -4.52906        5.18409
C          7.95523       -3.69796        5.09520
C          7.78013       -2.87670        3.99450
C          8.71904       -2.86596        2.95014
I          8.29543       -1.53853        1.38180
C          9.86586       -3.70922        3.00042
C         11.01361       -3.95927        2.15937
C         11.40895       -3.33127        0.85351
C         12.20645       -2.02040        1.04200
N         13.54926       -2.30945        1.61469
C         14.59999       -2.70549        0.65548
C         14.71302       -1.73526       -0.49399
C         13.46725       -1.08742       -0.95854
C         12.34063       -1.26049       -0.25566
O         15.76666       -1.50735       -1.08145
C         11.78725       -4.91155        2.79600
S         14.02244       -1.48134        3.00828
C         14.47985        0.12471        2.37780
C         13.51036        1.12785        2.27736
C         13.85695        2.39325        1.78054
C         12.80786        3.47616        1.66797
F         11.62584        3.00385        1.18342
F         12.52434        4.05024        2.86696
F         13.17141        4.49115        0.83718
C         15.19415        2.63840        1.42044
C         16.17974        1.64061        1.54058
C         17.61478        1.94475        1.16930
F         17.71869        2.56939       -0.03560
F         18.21074        2.77091        2.07189
F         18.40336        0.83933        1.09203
C         15.81193        0.38082        2.03484
O         12.86984       -1.28808        3.85944
O         15.22805       -2.10084        3.51491
H         14.46669       -8.45100        3.15457
H         13.01793       -7.68327        2.55063
H         12.90171       -8.94203        3.75689
H         14.18074       -6.26017        4.14770
H         13.99536       -7.57535        5.35869
H         10.49579       -8.28185        4.63671
H          9.86885       -7.29935        5.99513
H         12.10264       -9.26761        6.15281
H         10.48018       -9.49445        6.76047
H         11.51111       -8.26851        7.45856
H         12.78418       -6.04946        7.42572
H         11.30238       -5.09440        7.13628
H         14.05269       -4.35892        6.24327
H         13.17037       -3.63840        7.56820
H         12.58980       -3.45611        5.93028
H          9.19935       -5.13556        6.00869
H          7.25628       -3.69386        5.85446
H          6.95031       -2.26552        3.94082
H         10.52239       -3.11575        0.29452
H         12.04116       -4.02423        0.33872
H         11.66188       -1.40305        1.72553
H         14.36544       -3.67462        0.26732
H         15.53539       -2.71165        1.17499
H         13.46623       -0.50938       -1.81346
H         11.48211       -0.83366       -0.63747
H         12.66846       -5.30913        2.43484
H         12.53901        0.93696        2.56903
H         15.45822        3.56894        1.06073
H         16.52417       -0.35774        2.14566
