49
*****
C         11.61693        2.94968       -7.43378
Si        10.83625        4.65343       -7.22654
C         12.03975        5.68460       -6.20904
C         10.62997        5.43409       -8.91543
N          9.32228        4.48801       -6.37617
C          9.13321        4.06491       -5.07520
C         10.03987        3.54863       -4.12479
C          9.58489        3.22547       -2.85080
C          8.25814        3.42672       -2.51079
C          7.34347        3.94060       -3.44663
I          5.39862        4.22481       -2.71353
C          7.76212        4.24823       -4.77399
C          7.13743        4.72402       -5.99079
C          5.70463        5.07053       -6.28569
C          5.48421        6.58667       -6.52027
N          5.72832        6.92915       -7.95025
C          4.61971        6.65175       -8.89624
C          3.25938        7.07905       -8.40573
C          3.07490        7.26169       -6.95139
C          4.09502        7.01271       -6.12201
O          2.29779        7.23075       -9.15444
C          8.13121        4.81049       -6.94852
O          7.01043        8.18818       -9.72498
S          6.75339        8.24841       -8.29596
C          5.74109        9.76632       -7.89518
F          5.41747        9.82297       -6.57165
F          6.39294       10.92152       -8.19792
F          4.56401        9.77753       -8.58266
O          7.87692        8.15209       -7.37939
H         12.54657        3.04435       -7.95505
H         10.95671        2.32051       -7.99337
H         11.79055        2.51734       -6.47054
H         12.96434        5.77993       -6.73908
H         12.21526        5.20394       -5.26933
H         11.62340        6.65579       -6.04063
H         11.58504        5.51161       -9.39158
H         10.20487        6.41009       -8.80771
H          9.98208        4.82677       -9.51235
H         11.03220        3.41203       -4.37306
H         10.23946        2.83381       -2.15570
H          7.93622        3.19648       -1.55770
H          5.10183        4.76254       -5.45703
H          5.43203        4.56409       -7.18797
H          6.18218        7.11423       -5.90430
H          4.59303        5.59808       -9.08053
H          4.82006        7.22490       -9.77730
H          2.16653        7.57877       -6.57809
H          3.91267        7.12316       -5.11227
H          7.99196        5.07621       -7.93595
