83
*****
Si        10.13219       -4.09022        4.72243
C         11.29537       -5.26036        3.75690
C         10.68931       -6.49791        3.06109
C          9.83672       -6.14893        1.83987
C         11.81638       -7.44520        2.63353
C         11.14142       -3.24217        6.13720
C         12.03694       -2.04515        5.75478
C         12.46026       -1.29989        7.02505
C         13.28634       -2.46896        4.97916
C          8.73412       -5.13463        5.55781
C          9.17823       -6.26703        6.50865
C          9.31864       -5.77948        7.95355
C          8.15857       -7.41059        6.46636
N          9.41843       -2.82757        3.74580
C          8.53328       -1.85268        4.16659
C          7.95154       -1.60527        5.42891
C          7.06585       -0.54382        5.58046
C          6.75662        0.26690        4.50272
C          7.33649        0.04339        3.24245
I          6.74286        1.39244        1.75193
C          8.25538       -1.02928        3.04901
C          9.06494       -1.53308        1.95943
C          9.21172       -1.04078        0.54528
C         10.47226       -0.19517        0.24265
N         10.47480        1.09636        0.97573
C         11.14688        1.11504        2.29470
C         12.48823        0.43049        2.30933
C         12.71832       -0.65478        1.33428
C         11.77488       -0.93295        0.42701
O         13.36673        0.69518        3.12733
C          9.74496       -2.63847        2.43864
O         10.36799        3.64944        0.93438
S         10.53904        2.51551        0.05203
C         12.22193        2.54119       -0.53078
C         12.52675        2.02265       -1.79358
C         13.84491        2.05150       -2.24848
C         14.84667        2.60738       -1.45129
C         14.53366        3.14755       -0.20290
C         13.21746        3.12615        0.25766
O          9.68201        2.33510       -1.10155
H         12.02991       -5.61604        4.44889
H         11.65773       -4.65910        2.94939
H         10.04145       -6.96577        3.77263
H         10.44923       -5.67675        1.10041
H          9.05194       -5.48258        2.13140
H          9.41265       -7.04334        1.43357
H         12.44686       -6.95186        1.92359
H         11.39540       -8.32214        2.18784
H         12.39348       -7.72272        3.49076
H         11.77270       -3.98855        6.57230
H         10.40117       -2.83076        6.79115
H         11.46171       -1.40925        5.11476
H         13.03305       -1.95432        7.64837
H         11.58931       -0.97456        7.55468
H         13.05400       -0.45041        6.75906
H         13.88679       -3.10832        5.59199
H         13.85046       -1.60061        4.70964
H         12.99529       -2.99424        4.09357
H          8.15234       -5.57830        4.77705
H          8.20358       -4.44291        6.17825
H         10.13625       -6.60712        6.17486
H          8.36965       -5.43428        8.30731
H         10.02673       -4.97823        7.99239
H          9.65767       -6.58528        8.57052
H          7.20777       -7.05329        6.80286
H          8.48694       -8.20499        7.10355
H          8.06916       -7.77182        5.46316
H          8.18205       -2.20825        6.23408
H          6.63726       -0.35998        6.50108
H          6.09127        1.04607        4.62610
H          8.35470       -0.44195        0.31762
H          9.30675       -1.92101       -0.05560
H         10.40664        0.01863       -0.80372
H         10.51160        0.62526        3.00283
H         11.32126        2.14223        2.53839
H         13.59839       -1.19346        1.35252
H         11.95560       -1.72736       -0.20645
H         10.39514       -3.22508        1.89257
H         11.78170        1.62161       -2.38443
H         14.07961        1.66172       -3.17477
H         15.82274        2.61906       -1.78621
H         15.27700        3.56322        0.37993
H         12.98014        3.53886        1.17329
