59
*****
C         10.14536       -6.80781       -5.54528
Si         9.32443       -5.42769       -4.55692
C          8.93141       -6.13355       -2.85626
C         10.53735       -4.01319       -4.37166
N          7.85254       -4.94495       -5.35886
C          6.72389       -5.71392       -5.56783
C          6.45944       -7.07418       -5.30066
C          5.19832       -7.59281       -5.57904
C          4.20654       -6.78054       -6.10278
C          4.45722       -5.42581       -6.37709
I          2.82216       -4.34804       -7.12798
C          5.74286       -4.86488       -6.13068
C          6.36982       -3.57372       -6.30298
C          5.80594       -2.29051       -6.84355
C          5.17848       -1.40799       -5.73996
N          6.24573       -0.80106       -4.89955
C          6.86638        0.43546       -5.41604
C          5.85117        1.46916       -5.83238
C          4.55527        0.98010       -6.34944
C          4.29341       -0.33269       -6.32188
O          6.07964        2.67589       -5.82205
C          7.66874       -3.68544       -5.84231
S          6.15685       -1.00272       -3.22475
C          4.87508        0.13973       -2.75073
C          3.55441       -0.30538       -2.64819
C          2.55471        0.58867       -2.25914
C          2.86677        1.92693       -1.96524
C          1.78951        2.88886       -1.52055
F          0.55119        2.55136       -1.97782
F          1.68351        2.95697       -0.16566
F          2.00655        4.16414       -1.94611
C          4.20464        2.34835       -2.04373
C          5.20882        1.45783       -2.42804
O          5.67300       -2.33603       -2.94047
O          7.39585       -0.52618       -2.64728
H         11.04907       -7.10730       -5.05690
H         10.37194       -6.45528       -6.52980
H          9.48091       -7.64400       -5.60998
H          9.84002       -6.42642       -2.37298
H          8.29325       -6.98581       -2.96260
H          8.43762       -5.38958       -2.26671
H         11.41896       -4.36198       -3.87567
H         10.08873       -3.23196       -3.79433
H         10.79745       -3.63736       -5.33913
H          7.19472       -7.67897       -4.90238
H          5.00107       -8.58875       -5.39404
H          3.27228       -7.17510       -6.29381
H          5.05198       -2.52442       -7.56586
H          6.61241       -1.73978       -7.28081
H          4.56474       -2.03632       -5.12887
H          7.46882        0.18684       -6.26466
H          7.44995        0.85765       -4.62478
H          3.86044        1.64302       -6.72729
H          3.40035       -0.63885       -6.73869
H          8.38050       -2.93842       -5.86169
H          3.31950       -1.28803       -2.85853
H          1.57791        0.26364       -2.18682
H          4.44733        3.32504       -1.81524
H          6.19113        1.77090       -2.47353
