61
*****
C         14.20886       -3.26175        4.93342
C         13.75885       -2.15027        5.87254
Si        11.90568       -2.11843        6.28952
C         11.35295       -3.85505        6.87859
C         12.14803       -4.42841        8.04481
C         11.64619       -0.92925        7.78041
C         11.91626        0.53892        7.47877
N         10.90407       -1.57532        4.96535
C          9.52487       -1.48403        4.94480
C          8.55788       -1.77051        5.93241
C          7.20777       -1.61315        5.63699
C          6.81247       -1.18156        4.38302
C          7.76228       -0.87979        3.39250
I          6.95478       -0.26399        1.55765
C          9.15566       -1.01232        3.66204
C         10.38943       -0.76555        2.94877
C         10.62976       -0.20517        1.57531
C         11.04640        1.28652        1.58692
N         11.47927        1.74417        0.25920
C         10.47151        2.19309       -0.69955
C          9.37531        3.04638       -0.08765
C          9.22776        3.04209        1.38213
C          9.98066        2.21318        2.11482
O          8.56323        3.66995       -0.76830
C         11.42609       -1.12910        3.78966
C         12.74684        1.47888       -0.22688
O         13.54880        0.89617        0.70130
C         14.89062        0.60465        0.25714
C         15.59359       -0.35499        1.22794
Cl        14.73920       -1.93032        1.27575
Cl        17.27822       -0.63622        0.68958
Cl        15.62956        0.32491        2.88667
O         13.11701        1.72799       -1.36640
H         15.26326       -3.18438        4.76865
H         13.69428       -3.16998        3.99977
H         13.98517       -4.21171        5.37208
H         14.00886       -1.21477        5.41731
H         14.26177       -2.33202        6.79932
H         11.44412       -4.52919        6.05268
H         10.34870       -3.74328        7.23057
H         13.16767       -4.56274        7.74954
H         11.73213       -5.37202        8.33036
H         12.10270       -3.75318        8.87361
H         12.30339       -1.23394        8.56791
H         10.61163       -0.99780        8.04477
H         12.94360        0.66410        7.20710
H         11.70280        1.12656        8.34711
H         11.29212        0.85758        6.67019
H          8.85066       -2.09455        6.86746
H          6.49733       -1.81931        6.35658
H          5.80724       -1.08004        4.17267
H          9.72859       -0.30174        1.00657
H         11.43909       -0.75708        1.14485
H         11.87178        1.33145        2.26635
H         10.01914        1.32993       -1.14139
H         10.97705        2.80544       -1.41673
H          8.55053        3.67230        1.83954
H          9.81693        2.20773        3.13373
H         12.43120       -1.07149        3.56280
H         15.44718        1.51685        0.20199
H         14.83841        0.13951       -0.70505
