76
*****
Si        10.16500       -4.08656        5.08649
C         10.51036       -2.79746        6.45476
C         11.82164       -1.98534        6.39229
C         11.84506       -0.96009        5.25716
C         12.03785       -1.26291        7.72711
C          9.05130       -5.48705        5.81857
C          7.54299       -5.19503        5.96012
C          6.78765       -6.50952        6.18284
C          7.23707       -4.23659        7.11354
C         11.83598       -4.90334        4.55000
C         12.66683       -5.58879        5.65609
C         12.30082       -7.06752        5.81331
C         14.16001       -5.47829        5.32842
N          9.35308       -3.43543        3.68107
C          9.00229       -4.12070        2.53301
C          9.18550       -5.47037        2.16172
C          8.74789       -5.90511        0.91539
C          8.13793       -5.02172        0.04262
C          7.93522       -3.67819        0.40099
I          6.99685       -2.51199       -1.06574
C          8.35629       -3.19781        1.67554
C          8.27973       -1.94868        2.40376
C          7.66511       -0.62978        2.01836
C          6.26530       -0.33491        2.61063
N          5.23272       -1.27476        2.10440
C          4.95939       -2.49359        2.90442
C          4.96153       -2.29956        4.39755
C          5.63814       -1.10810        4.94479
C          6.23495       -0.24746        4.11323
O          4.45559       -3.10472        5.17599
C          8.91587       -2.14853        3.61614
O          3.20098       -1.71437        0.64929
S          3.92781       -0.60007        1.23241
C          2.87995        0.23159        2.53570
F          3.55924        1.23829        3.15861
F          1.74236        0.77487        2.02455
F          2.50663       -0.64251        3.51282
O          4.50750        0.40515        0.35640
H         10.50758       -3.32028        7.38833
H          9.74307       -2.06380        6.32097
H         12.60883       -2.68416        6.20024
H         11.06948       -0.23929        5.41152
H         11.68825       -1.45829        4.32329
H         12.79383       -0.46558        5.24270
H         11.23760       -0.57215        7.89253
H         12.96676       -0.73257        7.69928
H         12.06008       -1.97978        8.52115
H          9.42616       -5.71820        6.79373
H          9.10975       -6.28314        5.10602
H          7.22349       -4.72288        5.05464
H          7.12240       -6.96359        7.09205
H          6.97486       -7.17170        5.36347
H          5.73825       -6.31116        6.24852
H          7.54554       -4.68007        8.03715
H          6.18558       -4.04102        7.14543
H          7.76622       -3.31863        6.96438
H         12.44493       -4.13798        4.11607
H         11.55855       -5.69143        3.88153
H         12.44768       -5.08891        6.57641
H         12.51289       -7.58630        4.90183
H         11.25860       -7.15492        6.03926
H         12.87523       -7.49452        6.60868
H         14.36113       -5.98280        4.40650
H         14.73162       -5.92804        6.11320
H         14.42968       -4.44689        5.23679
H          9.64134       -6.13025        2.81117
H          8.87871       -6.89111        0.64024
H          7.82770       -5.35391       -0.88390
H          7.58088       -0.60694        0.95193
H          8.31317        0.11970        2.42232
H          6.02340        0.64608        2.25843
H          5.70724       -3.22038        2.66485
H          3.96624       -2.79818        2.64798
H          5.65076       -0.93993        5.96292
H          6.72193        0.55438        4.54326
H          9.03893       -1.43617        4.35264
