71
*****
C          5.62637        4.86585       11.08213
Si         4.22749        3.66768       10.69408
C          4.34707        2.16077       11.81650
C          2.41552        4.68376       11.30032
C          2.51156        4.76668       12.85061
C          2.36731        6.11796       10.64158
C          1.94808        6.12077        9.16605
C          1.43116        7.08704       11.38427
C          1.21339        3.79290       10.92172
N          4.14026        3.24500        9.00493
C          3.50507        2.15821        8.43174
C          2.67830        1.15273        8.97663
C          2.17030        0.15456        8.14729
C          2.47483        0.14095        6.79674
C          3.29238        1.13413        6.24180
Br         3.64474        0.98665        4.38138
C          3.82157        2.17405        7.05481
C          4.66048        3.32559        6.83248
C          5.27756        3.81439        5.55352
C          4.30038        4.60239        4.65364
N          3.98567        5.93419        5.23923
C          4.99077        6.99452        5.01353
C          5.42376        7.11201        3.57402
C          5.35693        5.89432        2.73760
C          4.86550        4.76491        3.26272
O          5.88598        8.14533        3.09650
C          4.83440        3.94229        8.05666
O          2.26793        7.66252        5.99130
S          2.35559        6.39962        5.28906
C          1.95979        6.71410        3.58199
C          1.39820        5.69656        2.80335
C          1.08060        5.94855        1.46898
C          1.30894        7.21297        0.92375
C          1.84374        8.23327        1.71216
C          2.16153        7.99051        3.04822
O          1.56757        5.26150        5.71120
H          5.62754        5.08564       12.12931
H          5.48535        5.77027       10.52802
H          6.56141        4.42274       10.80964
H          4.39759        2.47911       12.83680
H          5.22735        1.60344       11.57277
H          3.48424        1.54336       11.67782
H          3.34264        5.38266       13.12403
H          2.64810        3.78448       13.25254
H          1.60999        5.18992       13.24168
H          3.38250        6.44785       10.71553
H          0.93328        5.79189        9.08297
H          2.58338        5.46046        8.61351
H          2.03517        7.11191        8.77240
H          0.42165        6.74249       11.30022
H          1.51219        8.06262       10.95232
H          1.70858        7.12997       12.41679
H          1.31023        2.84088       11.40045
H          1.18982        3.65776        9.86055
H          0.30673        4.26245       11.24170
H          2.45120        1.15656        9.98333
H          1.56264       -0.57988        8.54274
H          2.09664       -0.60663        6.19415
H          5.63353        2.96745        5.00500
H          6.06505        4.48663        5.82342
H          3.39202        4.04038        4.59089
H          5.85212        6.77803        5.61028
H          4.53529        7.92435        5.28345
H          5.68557        5.91481        1.75954
H          4.87369        3.92693        2.66044
H          5.39662        4.79078        8.22698
H          1.22026        4.76635        3.21333
H          0.67667        5.19999        0.88457
H          1.08144        7.39432       -0.06640
H          2.00413        9.16828        1.30590
H          2.54248        8.74681        3.63806
