67
*****
Si        10.30701       -4.40922        5.02600
C          8.95382       -5.79595        5.51382
C          8.67093       -6.74934        4.34514
C          9.27291       -6.57325        6.79123
C         11.87472       -5.22977        4.20878
C         13.02456       -4.23934        3.97046
C         12.42139       -6.46229        4.93859
C         10.76529       -3.41113        6.66781
C         11.78458       -4.11398        7.57160
C         11.25753       -1.98427        6.37450
N          9.47214       -3.32699        3.91118
C          8.36224       -2.54813        4.18504
C          7.58765       -2.40822        5.35733
C          6.50901       -1.53083        5.36904
C          6.19358       -0.79862        4.23881
C          6.95183       -0.92570        3.06262
I          6.29569        0.26597        1.46800
C          8.06587       -1.81441        3.01139
C          9.06116       -2.19410        2.03026
C          9.26683       -1.71210        0.61929
C         10.38437       -0.65839        0.42038
N         10.13668        0.58585        1.19338
C         10.70862        0.67390        2.56079
C         12.06609        0.04745        2.74437
C         12.56413       -0.86487        1.69761
C         11.77219       -1.18378        0.66883
O         12.76277        0.24358        3.73792
C          9.85517       -3.16549        2.61446
O          9.52672        3.04746        1.23868
S         10.00774        2.04150        0.30816
C         11.76242        2.43094       -0.19820
F         12.27003        1.47421       -1.02858
F         11.86795        3.62095       -0.84881
F         12.59532        2.48526        0.88005
O          9.21653        1.72853       -0.87097
H          8.06351       -5.24317        5.72989
H          9.55471       -7.30859        4.11913
H          8.37766       -6.18313        3.48590
H          7.88318       -7.42109        4.61550
H         10.16003       -7.15304        6.64374
H          8.45656       -7.22386        7.02616
H          9.42542       -5.88682        7.59773
H         11.49200       -5.56299        3.26677
H         13.40834       -3.90521        4.91172
H         12.66266       -3.39976        3.41454
H         13.80356       -4.72317        3.41913
H         12.81479       -6.16852        5.88930
H         13.19844       -6.90786        4.35331
H         11.63247       -7.17066        5.08251
H          9.83813       -3.36702        7.20010
H         12.72629       -4.17472        7.06722
H         11.43818       -5.10020        7.80026
H         11.90076       -3.55763        8.47817
H         12.18467       -2.02918        5.84223
H         11.40041       -1.45975        7.29611
H         10.53007       -1.47094        5.78104
H          7.82094       -2.95446        6.20127
H          5.94149       -1.42554        6.22452
H          5.39080       -0.15044        4.25961
H          8.34687       -1.28181        0.28250
H          9.57670       -2.57141        0.06210
H         10.34076       -0.41292       -0.62017
H         10.03024        0.19039        3.23229
H         10.84148        1.71791        2.75390
H         13.51780       -1.25445        1.75908
H         12.14837       -1.85374       -0.02013
H         10.61395       -3.68312        2.14400
