79
*****
Si         7.39885        2.95400        3.73237
C          8.10665        1.53864        4.83029
C          9.44392        1.56475        5.27061
C          9.96836        0.52468        6.04317
C          9.17255       -0.56316        6.38724
C          7.85215       -0.61647        5.95297
C          7.32488        0.42027        5.17755
C          8.59102        4.43339        4.01032
C          9.62246        4.68859        3.08211
C         10.51849        5.74295        3.27312
C         10.41325        6.55349        4.39850
C          9.41793        6.30412        5.33879
C          8.51907        5.24966        5.15180
C          5.46335        3.44511        4.38200
C          5.34279        3.25336        5.90971
C          5.11778        4.90598        4.02562
C          4.44738        2.51746        3.67199
N          7.29928        2.50013        2.04158
C          7.10917        3.32995        0.95009
C          6.93440        4.72722        0.85748
C          6.76525        5.31768       -0.39117
C          6.77796        4.54428       -1.53898
C          6.97571        3.15604       -1.46602
I          6.98137        2.15562       -3.31004
C          7.15132        2.51588       -0.20588
C          7.41846        1.17259        0.25105
C          7.69227       -0.07829       -0.53301
C          9.16664       -0.17115       -0.99072
N         10.06817       -0.34188        0.18004
C         10.23946       -1.71765        0.68596
C         10.55445       -2.71284       -0.40161
C         10.02184       -2.43797       -1.75346
C          9.37027       -1.29071       -1.98105
O         11.16235       -3.76065       -0.19664
C          7.45813        1.20946        1.63125
O         12.00465        0.48226        1.62111
S         11.36181        0.73396        0.34901
C         12.48472        0.20732       -0.92841
C         12.44754        0.82774       -2.18150
C         13.33261        0.41652       -3.17770
C         14.25555       -0.59757       -2.91655
C         14.30549       -1.19658       -1.65664
C         13.42610       -0.78919       -0.65389
O         10.90558        2.06352        0.00301
H         10.04608        2.36419        5.01900
H         10.94987        0.56394        6.35958
H          9.56016       -1.32743        6.96227
H          7.26013       -1.42366        6.20393
H          6.34639        0.36503        4.85426
H          9.71637        4.08684        2.24899
H         11.26007        5.92090        2.57784
H         11.07081        7.33694        4.53578
H          9.34302        6.90025        6.17786
H          7.79263        5.06831        5.86203
H          6.04309        3.89244        6.40574
H          5.55170        2.23394        6.15881
H          4.35007        3.50084        6.22300
H          5.81013        5.56407        4.50778
H          4.12479        5.12847        4.35631
H          5.17879        5.03852        2.96561
H          4.67061        1.49777        3.90713
H          4.51168        2.66177        2.61372
H          3.45767        2.75172        4.00442
H          6.93204        5.30770        1.71074
H          6.62954        6.33828       -0.46180
H          6.64062        4.99274       -2.45824
H          7.06199       -0.08769       -1.39763
H          7.49316       -0.91479        0.10380
H          9.41125        0.74724       -1.48229
H          9.33366       -2.01766        1.17012
H         11.07018       -1.70845        1.36029
H         10.15108       -3.12360       -2.51387
H          8.96947       -1.15994       -2.92301
H          7.58689        0.39392        2.25040
H         11.77036        1.58397       -2.36740
H         13.30519        0.86206       -4.10817
H         14.90376       -0.90579       -3.65806
H         14.99390       -1.94168       -1.46706
H         13.46987       -1.21971        0.28299
