74
*****
C         12.20258       -0.17062       -7.84377
Si        10.52321       -0.49313       -8.59271
C         10.39176        0.23696      -10.32366
C         10.36710       -2.64598       -8.80066
C          9.24880       -2.92764       -9.82941
C         11.77084       -3.25084       -9.20109
C         11.81875       -4.78282       -9.06301
C         12.24259       -2.90212      -10.61887
C          9.91204       -3.16342       -7.40786
N          9.16256        0.00605       -7.61440
C          9.11259        0.19549       -6.24655
C         10.03567       -0.10784       -5.22424
C          9.74572        0.24692       -3.90992
C          8.56452        0.90100       -3.60507
C          7.62895        1.19738       -4.60942
I          5.91390        2.21468       -3.95947
C          7.87650        0.82270       -5.96110
C          7.16696        0.91839       -7.21614
C          5.82954        1.52741       -7.52737
C          5.94422        3.02660       -7.89052
N          6.51564        3.17880       -9.25601
C          5.56458        3.10676      -10.38267
C          4.36651        4.00098      -10.19403
C          3.89428        4.21820       -8.81054
C          4.61496        3.73459       -7.79116
O          3.73870        4.48916      -11.12988
C          7.97356        0.35169       -8.18451
S          7.89930        4.12851       -9.44374
C          7.26848        5.78767       -9.29854
C          7.28952        6.42886       -8.05692
C          6.81825        7.73879       -7.95018
C          6.32964        8.41721       -9.07956
C          5.84686        9.84468       -8.96696
F          5.33212       10.13628       -7.73957
F          6.84376       10.74620       -9.17942
F          4.86647       10.14904       -9.86172
C          6.34336        7.76690      -10.32482
C          6.81710        6.45839      -10.43822
O          8.77756        3.90145       -8.31679
O          8.37958        3.96515      -10.79949
H         12.96361       -0.50946       -8.51528
H         12.28608       -0.69631       -6.91556
H         12.32060        0.87876       -7.67122
H         11.23086       -0.07789      -10.90821
H         10.38175        1.30504      -10.26045
H          9.48800       -0.10147      -10.78582
H          9.55303       -2.57457      -10.79258
H          8.35397       -2.42268       -9.53073
H          9.06510       -3.98067       -9.87721
H         12.43346       -2.78636       -8.50102
H         11.14995       -5.22583       -9.77106
H         11.52497       -5.06101       -8.07245
H         12.81465       -5.12677       -9.24951
H         11.59077       -3.35878      -11.33407
H         13.23918       -3.26423      -10.76233
H         12.22679       -1.84017      -10.74892
H          8.96098       -2.73874       -7.16288
H         10.63120       -2.87780       -6.66885
H          9.83061       -4.23003       -7.43279
H         10.92016       -0.58960       -5.44918
H         10.41555        0.02090       -3.15807
H          8.36931        1.17378       -2.62910
H          5.19681        1.42728       -6.67033
H          5.42172        1.01351       -8.37264
H          6.60099        3.48434       -7.18058
H          5.22526        2.09662      -10.47949
H          6.07914        3.43867      -11.26015
H          3.01972        4.73631       -8.63244
H          4.22312        3.85802       -6.84445
H          7.71823        0.21316       -9.17478
H          7.65097        5.93739       -7.22455
H          6.82886        8.21300       -7.03364
H          6.00014        8.26087      -11.16340
H          6.83376        5.98977      -11.35754
