62
*****
C          8.76743       -9.15133       -1.55319
Si         7.54152       -9.30875       -0.14645
C          7.33111      -11.13376        0.27715
C          8.24849       -8.47062        1.38459
N          5.98698       -8.61781       -0.53330
C          4.87614       -8.55045        0.28565
C          4.65523       -9.02023        1.59810
C          3.42280       -8.79926        2.20562
C          2.42065       -8.12213        1.53153
C          2.62622       -7.64888        0.22505
I          0.99417       -6.64332       -0.62717
C          3.87183       -7.86083       -0.43263
C          4.44073       -7.53593       -1.72146
C          3.84403       -6.78290       -2.87604
C          3.99626       -5.25142       -2.73575
N          5.42237       -4.85245       -2.88686
C          5.91141       -4.68564       -4.27082
C          5.02000       -3.78054       -5.08386
C          3.57072       -3.81714       -4.79176
C          3.13575       -4.51670       -3.73600
O          5.43390       -3.06879       -5.99450
C          5.72832       -8.03951       -1.73899
S          6.11169       -3.88430       -1.68531
C          5.43239       -2.27081       -2.03516
C          4.22225       -1.88967       -1.44605
C          3.67491       -0.62678       -1.71740
C          2.36250       -0.21927       -1.08692
F          1.44018       -1.22094       -1.11913
F          2.50030        0.12795        0.21994
F          1.77809        0.84435       -1.70317
C          4.38004        0.25191       -2.55894
C          5.61112       -0.11511       -3.13470
C          6.35407        0.86397       -4.01745
F          5.56360        1.38100       -4.99741
F          6.82349        1.93040       -3.31382
F          7.43225        0.32315       -4.64567
C          6.13793       -1.38470       -2.85655
O          5.59442       -4.29021       -0.39753
O          7.53653       -3.80892       -1.92603
H          9.70002       -9.58916       -1.26424
H          8.91519       -8.11690       -1.78344
H          8.38758       -9.65798       -2.41569
H          8.28475      -11.55710        0.51434
H          6.91105      -11.64847       -0.56161
H          6.67812      -11.23149        1.11914
H          9.20144       -8.89802        1.61721
H          7.58227       -8.61415        2.20949
H          8.36344       -7.42349        1.19698
H          5.40143       -9.52343        2.10308
H          3.25480       -9.14217        3.16438
H          1.51205       -7.96328        1.99438
H          2.80205       -7.01871       -2.93595
H          4.36976       -7.07905       -3.75967
H          3.66392       -4.98019       -1.75551
H          5.94886       -5.64591       -4.74132
H          6.88167       -4.23688       -4.22493
H          2.90322       -3.31012       -5.39377
H          2.11466       -4.55770       -3.59208
H          6.38446       -7.98606       -2.53375
H          3.73144       -2.53837       -0.81097
H          3.98695        1.18500       -2.75855
H          7.04631       -1.66548       -3.25785
