76
*****
Si        10.27493       -4.13763        4.84864
C         10.59408       -3.00896        6.38455
C         10.40633       -3.46183        7.83800
C         11.56752       -4.31593        8.34549
C         10.28613       -2.22627        8.74497
C          9.07792       -5.79596        5.26570
C          7.62248       -5.30544        5.47040
C          9.12371       -6.84474        4.13435
C          9.51119       -6.53627        6.55142
C         12.14859       -4.80224        4.08205
C         12.72530       -5.93178        4.94982
C         11.95621       -5.29248        2.62899
C         13.14724       -3.62373        4.07064
N          9.60647       -3.11680        3.54276
C          9.87866       -1.77502        3.30724
C         10.78762       -0.86683        3.89388
C         10.79492        0.46883        3.49610
C          9.91018        0.91670        2.53261
C          9.01900        0.02651        1.92122
Br         7.83143        0.78429        0.64565
C          9.00929       -1.35272        2.27641
C          8.29803       -2.52292        1.81499
C          7.29597       -2.57962        0.69094
C          7.05297       -3.93851       -0.00868
N          6.35322       -4.92021        0.86284
C          4.91721       -4.64203        1.12040
C          4.13300       -4.26687       -0.11598
C          4.88928       -3.85813       -1.32194
C          6.21937       -3.71730       -1.24850
O          2.90547       -4.26242       -0.15029
C          8.69943       -3.56609        2.62527
O          6.19866       -7.23170        1.86905
S          6.82567       -6.55990        0.74302
C          6.10141       -7.20109       -0.85790
F          4.75501       -7.00193       -0.91642
F          6.63815       -6.57667       -1.94467
F          6.31483       -8.53531       -1.02253
O          8.27602       -6.55919        0.64624
H          9.95226       -2.16196        6.25991
H         11.65802       -2.90385        6.34103
H          9.51837       -4.05818        7.86621
H         12.46895       -3.73978        8.32660
H         11.67987       -5.17469        7.71715
H         11.36676       -4.63135        9.34804
H         11.18957       -1.65543        8.69163
H         10.12134       -2.53968        9.75468
H          9.46383       -1.62378        8.41981
H          7.29405       -4.78744        4.59364
H          7.58381       -4.64427        6.31079
H          6.98452       -6.14587        5.64812
H          8.83147       -6.38754        3.21214
H          8.45274       -7.64610        4.36350
H         10.11865       -7.22768        4.04304
H          9.49883       -5.85514        7.37653
H         10.50030       -6.92388        6.42368
H          8.83438       -7.34231        6.74414
H         12.04130       -6.75447        4.96513
H         12.87549       -5.57421        5.94706
H         13.66065       -6.25316        4.54150
H         11.26629       -6.11027        2.61688
H         12.89708       -5.61372        2.23343
H         11.57206       -4.49287        2.03070
H         13.29330       -3.27031        5.06997
H         12.75756       -2.83187        3.46565
H         14.08258       -3.95271        3.66838
H         11.44700       -1.19269        4.61780
H         11.46473        1.12755        3.92327
H          9.90664        1.91274        2.26257
H          7.62307       -1.89098       -0.05985
H          6.36102       -2.35342        1.15955
H          8.01370       -4.34331       -0.24962
H          4.85087       -3.83431        1.81903
H          4.48871       -5.54762        1.49618
H          4.39577       -3.68331       -2.21127
H          6.71456       -3.43477       -2.10873
H          8.36456       -4.53929        2.54930
