70
*****
C          7.66718        4.81838       -6.94542
Si         7.67024        3.24863       -7.98406
C          6.24062        3.36567       -9.25066
C          5.86966        4.60229       -9.80956
C          4.82439        4.68186      -10.73333
C          4.13868        3.53198      -11.11661
C          4.49916        2.29852      -10.58110
C          5.54296        2.21212       -9.65748
C          9.22208        3.12415       -9.06964
C         10.29780        4.01744       -8.91878
C         11.44264        3.89640       -9.71191
C         11.53406        2.88303      -10.66299
C         10.48028        1.98885      -10.82564
C          9.33286        2.10805      -10.03911
N          7.47386        1.87980       -6.92029
C          6.34679        1.55322       -6.18917
C          5.11505        2.22076       -6.01814
C          4.11807        1.61992       -5.25200
C          4.32653        0.37753       -4.67334
C          5.54601       -0.29304       -4.84143
Br         5.69180       -2.00196       -4.02784
C          6.59435        0.29635       -5.59752
C          7.93632       -0.08033       -5.96790
C          8.68819       -1.34398       -5.66678
C          8.40324       -2.45063       -6.70781
N          9.02547       -2.10345       -8.01423
C         10.45100       -2.45088       -8.17763
C         10.76277       -3.87101       -7.77985
C          9.93008       -4.48094       -6.72116
C          8.88651       -3.79845       -6.23370
O         11.70981       -4.50377       -8.24034
C          8.45144        0.94692       -6.73464
O          8.81183       -1.58095      -10.49853
S          8.04436       -2.10827       -9.38996
C          7.78951       -3.84327       -9.69157
C          6.65568       -4.47677       -9.17278
C          6.45713       -5.83563       -9.41574
C          7.37919       -6.55007      -10.18244
C          8.49656       -5.90780      -10.71860
C          8.70086       -4.54855      -10.48329
O          6.76214       -1.53202       -9.04451
H          7.78691        5.66868       -7.58382
H          8.47387        4.78309       -6.24334
H          6.73904        4.89572       -6.41867
H          6.37464        5.45924       -9.53450
H          4.55962        5.59579      -11.13291
H          3.36469        3.59408      -11.79640
H          3.99358        1.44565      -10.86751
H          5.80588        1.29295       -9.26885
H         10.24143        4.77026       -8.21514
H         12.22329        4.56069       -9.59219
H         12.38129        2.79549      -11.24571
H         10.54701        1.23639      -11.52876
H          8.55504        1.44250      -10.16978
H          4.95480        3.14197       -6.45485
H          3.21704        2.10387       -5.11424
H          3.57681       -0.05781       -4.11350
H          8.39715       -1.69673       -4.69943
H          9.73428       -1.12142       -5.69956
H          7.34264       -2.51452       -6.83407
H         11.03416       -1.79111       -7.56974
H         10.68658       -2.35149       -9.21663
H         10.15097       -5.42279       -6.36178
H          8.36282       -4.23634       -5.45974
H          9.41346        0.99957       -7.10448
H          5.97132       -3.94286       -8.61455
H          5.62822       -6.31314       -9.02855
H          7.23419       -7.55739      -10.35362
H          9.17209       -6.43936      -11.28968
H          9.51802       -4.06720      -10.89018
