88
*****
Si        10.10759       -4.07067        4.97855
C         10.52344       -3.10582        6.62664
C         11.38943       -3.89639        7.61323
C         11.15278       -1.72573        6.38750
C          8.92656       -5.61937        5.48107
C          7.65744       -5.19534        6.22414
C          8.56259       -6.47273        4.25917
C         11.72343       -4.87382        4.16529
C         12.81156       -3.83778        3.85964
C         12.32102       -6.04277        4.95766
N          9.23030       -3.09117        3.81542
C          8.27708       -2.11801        4.06106
C          7.63640       -1.69950        5.24669
C          6.73569       -0.63736        5.20755
C          6.46882        0.01163        4.01490
C          7.08060       -0.40448        2.82502
Br         6.63295        0.58972        1.27094
C          7.98617       -1.50185        2.82172
C          8.73826       -2.21388        1.81904
C          8.79493       -2.00263        0.33228
C         10.10922       -1.34772       -0.16198
N         10.07513       -1.07360       -1.60043
C          9.52388        0.19607       -2.08052
C          9.82553        1.39705       -1.20388
C         10.39059        1.15815        0.13704
C         10.49171       -0.09622        0.58908
O          9.56244        2.54900       -1.54563
C          9.45244       -3.19978        2.47307
C         10.23266       -2.14513       -2.46682
O         10.03764       -1.78714       -3.75972
C         10.29405       -2.77417       -4.77558
C         11.69474       -2.62301       -5.38727
C         12.84016       -3.02676       -4.46776
C         13.06132       -4.24871       -3.85087
C         14.20385       -4.39162       -3.06186
C         15.10641       -3.32731       -2.90594
C         14.88217       -2.09972       -3.53697
C         13.74786       -1.95612       -4.31931
C         13.26974       -0.82506       -5.08579
C         12.06462       -1.18274       -5.73064
C         11.38454       -0.28239       -6.53660
C         11.91908        0.99878       -6.68765
C         13.11453        1.36001       -6.04451
C         13.79933        0.44558       -5.23875
O         10.49287       -3.28515       -2.10280
H          9.56188       -2.96604        7.07469
H         12.36012       -4.05173        7.19071
H         10.93103       -4.84272        7.81127
H         11.48180       -3.34672        8.52660
H         12.11677       -1.84619        5.93904
H         11.25536       -1.21382        7.32148
H         10.52475       -1.15550        5.73533
H          9.50534       -6.21204        6.15832
H          7.04862       -4.59797        5.57807
H          7.92439       -4.62589        7.08980
H          7.11206       -6.06571        6.52401
H          7.98318       -5.88802        3.57559
H          7.99279       -7.32187        4.57411
H          9.45797       -6.80347        3.77562
H         11.36465       -5.27849        3.24203
H         13.17882       -3.42531        4.77609
H         12.40010       -3.05583        3.25617
H         13.61512       -4.30917        3.33335
H         12.69493       -5.68474        5.89409
H         13.12099       -6.48090        4.39821
H         11.56413       -6.77834        5.13357
H          7.83428       -2.17831        6.13921
H          6.26445       -0.33263        6.07363
H          5.81365        0.80888        4.00172
H          7.97803       -1.37147        0.05082
H          8.74262       -2.97092       -0.12001
H         10.86679       -2.07569        0.04063
H          8.46103        0.09247       -2.14769
H          9.99181        0.38835       -3.02337
H         10.70437        1.94990        0.71988
H         10.86710       -0.22014        1.54237
H         10.05581       -3.90388        2.02006
H          9.56526       -2.66785       -5.55177
H         10.23640       -3.74001       -4.31871
H         11.60424       -3.26102       -6.24146
H         12.39931       -5.03110       -3.97178
H         14.38733       -5.28971       -2.58773
H         15.94555       -3.45258       -2.31842
H         15.54660       -1.31840       -3.42248
H         10.50851       -0.55141       -7.01117
H         11.42986        1.68869       -7.27902
H         13.49204        2.31246       -6.16841
H         14.67894        0.71111       -4.76885
