84
*****
C         12.21144       -0.70423        7.03158
Si        11.54006        1.07019        7.05417
C         11.35454        1.52782        8.92099
C         12.38309        1.22367        9.83245
C         12.25526        1.55205       11.18380
C         11.10544        2.18910       11.64378
C         10.08201        2.50413       10.75323
C         10.20337        2.18028        9.39995
C         12.84139        2.27641        6.41289
C         13.73890        1.88518        5.39993
C         14.70102        2.77315        4.91138
C         14.78681        4.06396        5.42487
C         13.91122        4.46991        6.42768
C         12.94642        3.58639        6.91849
N          9.97981        1.06972        6.27121
C          9.53223        1.82566        5.20346
C         10.15253        2.83163        4.43319
C          9.45000        3.43435        3.39160
C          8.15114        3.05165        3.10619
C          7.52011        2.05512        3.86216
Br         5.74348        1.62526        3.35068
C          8.20203        1.41967        4.93706
C          7.87623        0.39951        5.90222
C          6.60233       -0.36783        6.11309
C          6.67313       -1.83282        5.61384
N          5.56193       -2.63689        6.13081
C          4.28382       -2.63275        5.41958
C          4.40818       -2.62108        3.90650
C          5.72624       -2.31719        3.31452
C          6.73273       -1.94339        4.11276
O          3.44222       -2.79024        3.16454
C          8.99566        0.21830        6.69123
C          5.63262       -3.01605        7.46344
O          4.46343       -3.52922        7.92634
C          4.39034       -3.77775        9.34954
C          3.72242       -2.57361       10.03157
C          2.43532       -2.95370       10.76012
C          1.28992       -3.53595       10.23698
C          0.22607       -3.79014       11.10453
C          0.31425       -3.45662       12.46617
C          1.46737       -2.85904       12.98467
C          2.52459       -2.60782       12.12561
C          3.81443       -2.00021       12.37233
C          4.54516       -1.96902       11.16456
C          5.81170       -1.40667       11.10730
C          6.35774       -0.88517       12.28159
C          5.63793       -0.92367       13.48634
C          4.35695       -1.48209       13.53737
O          6.63043       -2.85657        8.15577
H         13.16956       -0.72914        7.50728
H         12.30723       -1.03647        6.01899
H         11.53615       -1.34778        7.55574
H         13.23934        0.75381        9.49913
H         13.01492        1.32199       11.84336
H         11.01184        2.42751       12.64349
H          9.23125        2.97837       11.09432
H          9.44245        2.42150        8.74585
H         13.68512        0.92980        5.01341
H         15.34972        2.47098        4.16780
H         15.49792        4.71844        5.06291
H         13.97477        5.42640        6.80992
H         12.30196        3.89821        7.66176
H         11.12167        3.11971        4.64005
H          9.90186        4.17187        2.82866
H          7.64315        3.50404        2.33010
H          5.81534        0.13140        5.58744
H          6.42724       -0.40309        7.16808
H          7.59188       -2.22184        6.00047
H          3.73802       -1.76189        5.71724
H          3.78746       -3.54469        5.67819
H          5.86967       -2.39235        2.29530
H          7.63007       -1.70998        3.65963
H          9.07619       -0.45176        7.47197
H          5.37681       -3.91116        9.74196
H          3.81759       -4.66252        9.53405
H          3.58365       -1.90106        9.21101
H          1.22610       -3.77441        9.23493
H         -0.63493       -4.22805       10.74131
H         -0.48205       -3.65511       13.09189
H          1.52927       -2.61086       13.98447
H          6.33694       -1.37457       10.21953
H          7.30093       -0.46673       12.26385
H          6.05926       -0.53518       14.34458
H          3.82750       -1.50776       14.42283
