81
*****
Si         7.29483        2.04716        3.54561
C          7.07760        0.99665        5.15101
C          7.46264        1.50170        6.40801
C          7.32789        0.72669        7.56253
C          6.80588       -0.56130        7.48346
C          6.41414       -1.07489        6.25089
C          6.54417       -0.30350        5.09382
C          9.19100        2.48181        3.50135
C         10.13628        1.81336        4.29954
C         11.49316        2.13849        4.22066
C         11.93101        3.11809        3.33336
C         11.01444        3.76985        2.51417
C          9.65707        3.45083        2.58969
C          6.21308        3.79788        3.81402
C          7.12511        4.89164        4.42911
C          5.69406        4.30977        2.45407
C          5.03592        3.59455        4.79470
N          6.89368        1.08770        2.12755
C          5.65760        0.71411        1.62974
C          4.34978        0.94964        2.09454
C          3.25826        0.52780        1.34169
C          3.45098       -0.12570        0.13868
C          4.74593       -0.41835       -0.31640
I          4.83096       -1.34964       -2.19400
C          5.88562       -0.04020        0.45136
C          7.30947       -0.26553        0.38499
C          8.12676       -1.13791       -0.53087
C          8.37905       -2.58635       -0.01747
N          9.22401       -2.66710        1.17892
C          8.62082       -2.71840        2.51278
C          7.24594       -3.35530        2.59080
C          6.59026       -3.76479        1.33577
C          7.12773       -3.40183        0.16653
O          6.65988       -3.53728        3.65726
C          7.87944        0.49194        1.38948
O         11.11805       -2.27125       -0.06269
C         10.57751       -2.40579        1.02741
O         11.21799       -2.30920        2.21981
C         12.64109       -2.03661        2.28657
C         12.98840       -0.68879        1.64495
C         12.95037       -1.95772        3.78939
C         13.44997       -3.18742        1.67868
H          7.84911        2.45611        6.47712
H          7.61608        1.11005        8.47632
H          6.70965       -1.13380        8.33669
H          6.02610       -2.02932        6.19152
H          6.24518       -0.69225        4.18580
H          9.82487        1.07526        4.95012
H         12.17402        1.65007        4.82307
H         12.93297        3.36018        3.28342
H         11.33825        4.49010        1.84978
H          8.98606        3.93089        1.96976
H          7.95836        5.06706        3.78118
H          7.47890        4.56511        5.38468
H          6.56716        5.79717        4.54573
H          6.51866        4.44588        1.78593
H          5.18987        5.24322        2.59316
H          5.01374        3.59516        2.04005
H          5.41003        3.23988        5.73233
H          4.35333        2.87746        4.38879
H          4.52945        4.52552        4.94191
H          4.20071        1.43486        2.99307
H          2.30030        0.70358        1.68293
H          2.63496       -0.40089       -0.43001
H          9.07704       -0.66766       -0.67485
H          7.55781       -1.23735       -1.43160
H          8.93094       -3.02676       -0.82143
H          8.53898       -1.71492        2.87505
H          9.26369       -3.34122        3.09906
H          5.72467       -4.32624        1.35933
H          6.63925       -3.70938       -0.68893
H          8.89268        0.59291        1.55734
H         12.40245        0.08343        2.09799
H         12.77760       -0.72793        0.59665
H         14.02762       -0.48088        1.79226
H         12.39137       -1.15716        4.22703
H         13.99629       -1.78068        3.92947
H         12.67887       -2.88037        4.25833
H         13.24378       -3.25376        0.63083
H         13.17675       -4.10588        2.15480
H         14.49417       -3.00619        1.82595
