82
*****
Si         7.29908        1.84111        3.93956
C          6.65343        1.00777        5.55012
C          6.72853        1.66425        6.79310
C          6.27767        1.04252        7.96024
C          5.74620       -0.24289        7.90817
C          5.66574       -0.91009        6.68944
C          6.11617       -0.29355        5.51941
C          9.21095        2.04921        4.20410
C          9.88937        1.52201        5.31578
C         11.27376        1.67262        5.44200
C         12.00314        2.33663        4.45852
C         11.35169        2.84920        3.34167
C          9.96917        2.70709        3.21238
C          6.45956        3.73524        3.78467
C          7.40020        4.77448        4.44715
C          6.29291        4.10852        2.29543
C          5.09524        3.82377        4.50090
N          7.01531        0.79964        2.55491
C          5.83608        0.52478        1.88728
C          4.49904        0.86427        2.16775
C          3.50064        0.53332        1.25545
C          3.81418       -0.13380        0.08313
C          5.13363       -0.53156       -0.18230
I          5.43074       -1.52513       -2.00486
C          6.17332       -0.24041        0.74485
C          7.56994       -0.57254        0.87634
C          8.44185       -1.46477        0.04259
C          9.24473       -0.71735       -1.04326
N         10.24879        0.19901       -0.43508
C         11.48328       -0.44003        0.07009
C         12.12395       -1.35661       -0.94374
C         11.24210       -1.99615       -1.94645
C          9.93561       -1.70113       -1.95690
O         13.32164       -1.62983       -0.93682
C          8.02709        0.05581        2.01688
S         10.37405        1.76544       -1.06249
C         11.17955        1.51172       -2.63174
C         10.41096        1.35964       -3.78894
C         11.04626        1.14463       -5.01390
C         12.44823        1.08722       -5.09256
C         13.13495        0.86357       -6.42010
F         12.37553        0.14937       -7.29756
F         13.43881        2.03067       -7.04978
F         14.30746        0.18052       -6.30483
C         13.20516        1.28352       -3.92551
C         12.57561        1.50367       -2.69885
O          9.04128        2.25936       -1.33439
O         11.28536        2.52218       -0.23039
H          7.12172        2.61711        6.84288
H          6.33887        1.53776        8.86357
H          5.41264       -0.70006        8.77116
H          5.27212       -1.86325        6.64985
H          6.05437       -0.79818        4.62132
H          9.36110        1.01904        6.04583
H         11.75806        1.28948        6.26885
H         13.02426        2.44798        4.55829
H         11.89092        3.33498        2.60799
H          9.49454        3.08876        2.37926
H          8.35907        4.74058        3.97353
H          7.50775        4.54636        5.48700
H          6.98296        5.75373        4.33812
H          7.24113        4.04559        1.80369
H          5.91654        5.10714        2.21799
H          5.60558        3.43144        1.83278
H          5.21616        3.56432        5.53190
H          4.40638        3.14633        4.04106
H          4.71734        4.82204        4.42627
H          4.26046        1.35514        3.04362
H          2.52023        0.78691        1.45426
H          3.07049       -0.34044       -0.60189
H          7.81945       -2.19031       -0.43815
H          9.15477       -1.90944        0.70509
H          8.55559       -0.13092       -1.61432
H         11.24068       -1.01086        0.94198
H         12.18354        0.33907        0.28816
H         11.63061       -2.66333       -2.63125
H          9.34894       -2.18974       -2.65123
H          8.98125       -0.02356        2.40199
H          9.38122        1.40590       -3.73866
H         10.48099        1.02681       -5.86924
H         14.23579        1.26485       -3.97527
H         13.13741        1.65942       -1.84730
