75
*****
Si        10.05160       -4.22848        4.77127
C         10.53366       -2.84366        6.06137
C         10.72077       -1.37895        5.60881
C         10.74047       -0.47130        6.84605
C         11.98601       -1.13230        4.79340
C          8.85556       -5.59745        5.93581
C          7.41152       -5.06590        6.03925
C          8.82071       -6.97491        5.25244
C          9.44070       -5.72125        7.35954
C         11.80387       -5.26739        4.20758
C         12.45408       -5.89574        5.46185
C         11.54908       -6.38069        3.16689
C         12.81002       -4.26396        3.60291
N          9.08015       -3.61047        3.44767
C          8.03305       -2.70061        3.50650
C          7.43596       -2.02959        4.59682
C          6.39455       -1.13445        4.38133
C          5.95357       -0.87923        3.09722
C          6.53486       -1.52898        1.99579
I          5.79800       -0.90336        0.13390
C          7.57795       -2.48442        2.18085
C          8.35462       -3.36238        1.33934
C          8.27007       -3.65507       -0.13319
C          7.85522       -5.11577       -0.46631
N          6.49463       -5.45747       -0.02558
C          5.35938       -5.00796       -0.83965
C          5.59429       -5.09868       -2.34006
C          6.96198       -5.38355       -2.81979
C          7.97607       -5.37400       -1.94691
O          4.70095       -4.90026       -3.16043
C          9.29359       -3.96807        2.15327
O          7.29981       -6.47054        1.87389
C          6.33108       -6.00451        1.26134
C          4.90642       -6.04495        1.86661
F          4.13066       -6.99752        1.27473
F          4.89584       -6.31617        3.20059
F          4.24047       -4.86428        1.71217
H         11.45860       -3.14745        6.50533
H          9.67012       -2.79156        6.69104
H          9.89680       -1.15590        4.96365
H         11.57701       -0.72663        7.46242
H          9.83509       -0.60444        7.40053
H         10.82306        0.55002        6.53787
H         12.84510       -1.34195        5.39583
H         12.01295       -0.11047        4.47710
H         11.98755       -1.77145        3.93527
H          6.99370       -4.97526        5.05838
H          7.41754       -4.10718        6.51435
H          6.82146       -5.74646        6.61680
H          8.41359       -6.87448        4.26803
H          8.21000       -7.64160        5.82467
H          9.81430       -7.36693        5.18921
H          9.45905       -4.75686        7.82271
H         10.43640       -6.10899        7.30346
H          8.83209       -6.38367        7.93893
H         11.77610       -6.59701        5.90168
H         12.68018       -5.12605        6.16991
H         13.35591       -6.39897        5.18193
H         10.85311       -7.08897        3.56545
H         12.47069       -6.87491        2.94041
H         11.14701       -5.94915        2.27413
H         13.00172       -3.48235        4.30805
H         12.40089       -3.84427        2.70771
H         13.72457       -4.77002        3.37399
H          7.77391       -2.20446        5.55611
H          5.94982       -0.65949        5.18236
H          5.18841       -0.20357        2.94544
H          9.23009       -3.47072       -0.56825
H          7.50737       -3.01890       -0.53129
H          8.53009       -5.74124        0.07978
H          5.15285       -3.98739       -0.59328
H          4.54225       -5.66152       -0.61593
H          7.13343       -5.58762       -3.81678
H          8.92089       -5.55905       -2.31852
H         10.04392       -4.59722        1.82740
