76
*****
Si         9.67605       -4.12133        4.89744
C          9.08615       -4.39938        6.72220
C          9.79377       -5.54414        7.45908
C          9.18199       -3.14408        7.60303
C          9.98752       -5.88852        3.96901
C         11.09285       -6.75294        4.58199
C          8.68121       -6.68321        3.84728
C         11.48433       -3.21216        4.93324
C         12.32963       -3.42466        3.67169
C         11.36227       -1.70525        5.20513
N          8.62069       -3.20229        3.83287
C          7.39632       -2.60924        4.07988
C          6.56850       -2.55826        5.22002
C          5.37462       -1.83776        5.18256
C          4.99308       -1.16806        4.03398
C          5.79152       -1.22264        2.88612
Br         5.17052       -0.24152        1.38267
C          7.00523       -1.96471        2.88143
C          8.00617       -2.26607        1.88667
C          8.00264       -1.85532        0.43413
C          9.09312       -2.49606       -0.46002
N          9.13914       -3.96100       -0.56396
C         10.35685       -4.47287       -1.19710
C         10.50219       -3.84953       -2.58695
C          9.73861       -2.60220       -2.88099
C          9.09393       -1.97627       -1.88233
O         11.29257       -4.27816       -3.42554
C          8.97254       -3.01795        2.52318
O          6.84087       -4.24401       -0.56427
C          7.96818       -4.70911       -0.63734
O          8.22241       -6.03293       -0.80687
C          7.14404       -6.99767       -0.91976
C          6.28926       -6.73295       -2.16407
C          7.85260       -8.35022       -1.09131
C          6.29935       -7.04936        0.35787
H          8.05906       -4.66531        6.58344
H         10.82330       -5.29183        7.60505
H          9.72500       -6.43935        6.87704
H          9.32649       -5.69956        8.40902
H         10.21032       -2.88163        7.73927
H          8.73510       -3.34139        8.55501
H          8.66730       -2.33505        7.12821
H         10.34239       -5.62865        2.99359
H         10.80536       -7.05320        5.56793
H         12.00071       -6.18881        4.63143
H         11.24486       -7.62086        3.97492
H          8.32866       -6.94170        4.82390
H          8.85781       -7.57566        3.28404
H          7.94590       -6.08661        3.34898
H         11.99747       -3.69096        5.74091
H         11.84852       -2.95860        2.83730
H         12.43290       -4.47299        3.48396
H         13.29734       -2.99069        3.81349
H         10.84812       -1.23663        4.39214
H         12.33935       -1.27996        5.30176
H         10.81431       -1.54948        6.11088
H          6.84566       -3.05373        6.08183
H          4.77091       -1.80409        6.01888
H          4.11527       -0.62551        4.02354
H          8.13031       -0.79370        0.39470
H          7.06974       -2.20152        0.04077
H          9.95478       -2.18829        0.09468
H         10.29300       -5.53715       -1.28722
H         11.20682       -4.21889       -0.59881
H          9.70599       -2.22438       -3.84078
H          8.57898       -1.10703       -2.09274
H          9.82908       -3.38492        2.07968
H          6.91802       -6.70518       -3.02940
H          5.78642       -5.79440       -2.05830
H          5.56660       -7.51445       -2.27322
H          8.44767       -8.33089       -1.98037
H          7.12215       -9.12835       -1.16789
H          8.48141       -8.53332       -0.24516
H          5.79838       -6.11349        0.49233
H          6.93457       -7.23782        1.19804
H          5.57532       -7.83286        0.27531
