85
*****
Si         8.93199        6.12392        5.54545
C          7.95333        6.16261        7.19797
C          8.33013        7.01569        8.25189
C          7.62672        7.01857        9.45936
C          6.54002        6.16783        9.63895
C          6.15791        5.30805        8.61381
C          6.85950        5.29981        7.40554
C         10.66686        5.39989        5.99230
C         10.93819        4.81626        7.24209
C         12.19735        4.27480        7.51859
C         13.20083        4.29649        6.55301
C         12.94770        4.85609        5.30508
C         11.69317        5.40075        5.02478
C          9.18941        8.08198        4.85720
C         10.47561        8.68605        5.47054
C          9.33136        8.06177        3.31770
C          8.00026        8.98438        5.24488
N          8.13128        5.12261        4.34979
C          6.90756        5.31971        3.73753
C          5.87380        6.24270        3.99007
C          4.77183        6.28305        3.14038
C          4.68716        5.42167        2.05866
C          5.68543        4.46220        1.82634
I          5.40203        3.24958        0.13975
C          6.80835        4.36810        2.69510
C          7.94073        3.48655        2.84059
C          8.31441        2.24537        2.08436
C          9.28268        2.51114        0.91134
N         10.59721        3.00371        1.40936
C         11.52335        1.97147        1.92146
C         11.72348        0.85099        0.93037
C         10.58152        0.50352        0.05457
C          9.47858        1.26330        0.08341
O         12.76200        0.20071        0.85229
C          8.69217        3.96512        3.89549
S         11.26719        4.37204        0.67992
C         11.86674        3.74084       -0.87846
C         11.02619        3.75176       -1.99652
C         11.47564        3.22994       -3.21879
C         10.56343        3.22475       -4.42466
F          9.27432        2.92890       -4.09946
F         10.53000        4.42813       -5.05523
F         10.92767        2.31158       -5.36605
C         12.79009        2.73735       -3.30461
C         13.65342        2.75599       -2.19301
C         15.05885        2.20862       -2.31832
F         15.70853        2.70302       -3.40829
F         15.85084        2.49300       -1.24969
F         15.07371        0.85569       -2.45630
C         13.18005        3.26732       -0.97579
O         10.20683        5.30932        0.38206
O         12.42263        4.78027        1.44962
H          9.13695        7.64779        8.13138
H          7.91400        7.65362       10.22041
H          6.01913        6.17464       10.52982
H          5.35401        4.67465        8.74631
H          6.57230        4.65260        6.65477
H         10.20034        4.78714        7.96302
H         12.38420        3.85670        8.44342
H         14.12957        3.89848        6.76288
H         13.68772        4.86869        4.58589
H         11.51386        5.81056        4.09476
H         11.31484        8.07417        5.21327
H         10.37756        8.72762        6.53523
H         10.62363        9.67398        5.08716
H         10.15544        7.43671        3.04369
H          9.50431        9.05612        2.96239
H          8.43255        7.67849        2.88165
H          7.89793        9.00159        6.30983
H          7.10306        8.59999        4.80651
H          8.17481        9.97762        4.88724
H          5.93281        6.88291        4.79734
H          4.01270        6.95934        3.31751
H          3.88165        5.48597        1.41674
H          7.42127        1.80417        1.69380
H          8.81882        1.59711        2.77009
H          8.84635        3.26753        0.29297
H         11.12182        1.56505        2.82617
H         12.47250        2.43451        2.09352
H         10.63460       -0.31522       -0.57142
H          8.69079        0.96906       -0.51478
H          9.54062        3.51937        4.27820
H         10.07455        4.14404       -1.92222
H         13.12869        2.35431       -4.20108
H         13.80050        3.29438       -0.15157
