97
*****
Si        10.04330       -3.70633        5.33061
C          9.08078       -3.76408        6.99040
C          9.30831       -4.79858        8.10188
C         10.64109       -4.63580        8.82699
C          8.17541       -4.68209        9.13491
C         10.54423       -5.64435        4.68021
C          9.20899       -6.39593        4.43941
C         11.35450       -5.63334        3.36909
C         11.36242       -6.42352        5.73105
C         11.77717       -2.51190        5.52236
C         12.99064       -3.32051        6.00378
C         12.13311       -1.85350        4.17021
C         11.46658       -1.39229        6.54382
N          9.06625       -2.90878        4.07199
C          7.90231       -2.16815        4.21627
C          7.25073       -1.61960        5.34060
C          6.00992       -1.00240        5.19001
C          5.41064       -0.92624        3.94531
C          6.06802       -1.41659        2.81031
Br         5.12095       -1.27869        1.17191
C          7.35821       -2.00388        2.91892
C          8.35851       -2.46558        1.99432
C          8.40828       -2.39980        0.49396
C          9.09516       -1.11693       -0.03662
N          9.59788       -1.29621       -1.40062
C          8.61739       -1.34776       -2.48692
C          7.65144       -0.17328       -2.40679
C          7.54505        0.55866       -1.12076
C          8.19404        0.09362       -0.04388
O          6.89765        0.12856       -3.33047
C          9.39508       -2.97541        2.75064
C         10.96291       -1.34309       -1.61343
O         11.27409       -1.55823       -2.91596
C         12.67003       -1.65545       -3.25373
C         13.14311       -3.10919       -3.38498
C         12.25242       -3.97507       -4.27067
C         11.86165       -3.75668       -5.58299
C         11.04079       -4.70815       -6.19182
C         10.62859       -5.85507       -5.49337
C         11.03033       -6.07229       -4.17201
C         11.84349       -5.12893       -3.56590
C         12.40588       -5.09066       -2.23267
C         13.16294       -3.90808       -2.08799
C         13.82959       -3.62132       -0.90636
C         13.72594       -4.53070        0.14746
C         12.97547       -5.70873        0.00639
C         12.30655       -5.99429       -1.18750
O         11.79828       -1.19712       -0.72984
H          8.04978       -3.85738        6.71981
H          9.45926       -2.88292        7.46498
H          9.32129       -5.75777        7.62786
H         10.66722       -3.68443        9.31597
H         11.44162       -4.69531        8.11953
H         10.74895       -5.41353        9.55390
H          8.19961       -3.71064        9.58278
H          8.30498       -5.42715        9.89188
H          7.23327       -4.82744        8.64896
H          8.62862       -5.86784        3.71195
H          8.66233       -6.45490        5.35734
H          9.41489       -7.38353        4.08283
H         10.81113       -5.09833        2.61849
H         11.51796       -6.63904        3.04237
H         12.29693       -5.15500        3.53624
H         10.82403       -6.44853        6.65539
H         12.30478       -5.93916        5.88017
H         11.52582       -7.42319        5.38630
H         13.20597       -4.09509        5.29768
H         12.77345       -3.75662        6.95643
H         13.83803       -2.67327        6.09267
H         12.35141       -2.61389        3.44976
H         12.98912       -1.22368        4.29457
H         11.30523       -1.26709        3.83015
H         11.21748       -1.82990        7.48793
H         10.64178       -0.80800        6.19281
H         12.32567       -0.76459        6.65722
H          7.69139       -1.67503        6.27214
H          5.53494       -0.59942        6.01283
H          4.47296       -0.50526        3.85275
H          7.40673       -2.42970        0.11857
H          8.98788       -3.23393        0.15754
H          9.89949       -0.94565        0.64794
H          8.06438       -2.26102       -2.41602
H          9.13921       -1.29678       -3.41966
H          6.97681        1.41767       -1.05578
H          8.06813        0.60094        0.84594
H         10.28059       -3.34867        2.37438
H         13.24266       -1.17615       -2.48740
H         12.80854       -1.18157       -4.20302
H         14.12342       -2.94802       -3.78237
H         12.16871       -2.91499       -6.09513
H         10.73322       -4.56703       -7.16676
H         10.02157       -6.54601       -5.96149
H         10.72806       -6.91587       -3.66013
H         14.38745       -2.75860       -0.80873
H         14.20607       -4.33501        1.03977
H         12.91682       -6.37259        0.79434
H         11.75147       -6.85849       -1.28786
