49
*****
C          8.19781      -10.94226       -1.23938
Si         6.33151      -10.83436       -1.48763
C          5.80638      -12.13385       -2.72726
C          5.53942      -11.21465        0.17875
N          5.91245       -9.21614       -1.98905
C          6.11655       -8.04599       -1.28577
C          6.71373       -7.79174       -0.03268
C          6.77653       -6.48190        0.43996
C          6.25958       -5.43736       -0.30974
C          5.66787       -5.67988       -1.55674
Br         5.00563       -4.16319       -2.48822
C          5.58672       -7.00219       -2.07332
C          5.06933       -7.60100       -3.28684
C          4.41154       -6.87667       -4.43129
C          3.92090       -7.71387       -5.63830
N          2.77424       -8.59754       -5.28552
C          1.47573       -7.90710       -5.06930
C          1.14162       -6.87964       -6.12574
C          2.23856       -6.39069       -6.99192
C          3.49546       -6.78483       -6.74939
O          0.01326       -6.41797       -6.27337
C          5.31498       -8.95584       -3.18872
O          1.65592      -10.86714       -5.29903
S          2.71970      -10.15694       -5.98906
C          2.24789       -9.90196       -7.78073
F          1.08687       -9.19968       -7.90135
F          3.20120       -9.20358       -8.46144
F          2.07308      -11.07917       -8.44118
O          4.07174      -10.68691       -5.92243
H          8.46000      -11.93297       -0.93174
H          8.49847      -10.24374       -0.48666
H          8.69387      -10.71129       -2.15887
H          6.08745      -13.10230       -2.36947
H          6.28653      -11.94688       -3.66502
H          4.74487      -12.09549       -2.85616
H          5.80062      -12.20775        0.47947
H          4.47568      -11.13570        0.09434
H          5.89206      -10.51651        0.90891
H          7.09989       -8.56741        0.52789
H          7.21153       -6.28846        1.35560
H          6.31077       -4.47269        0.05332
H          5.11758       -6.16452       -4.80448
H          3.51713       -6.46830       -4.00919
H          4.73378       -8.33683       -5.94822
H          1.51078       -7.41439       -4.12015
H          0.71474       -8.65782       -5.11648
H          2.03621       -5.75128       -7.77629
H          4.23377       -6.42365       -7.37347
H          5.08393       -9.65953       -3.90737
