63
*****
C          1.69114       -0.68781        9.31696
Si         1.47885       -0.96967        7.46994
C          1.33921       -2.86484        7.15830
C          0.79070       -3.71077        8.14150
C          0.69208       -5.08720        7.92451
C          1.13753       -5.64083        6.72750
C          1.68177       -4.81950        5.74416
C          1.78355       -3.44212        5.95477
C         -0.19700       -0.26238        6.90550
C         -0.39771        1.13289        6.93984
C         -1.61167        1.69403        6.53628
C         -2.64724        0.87553        6.09593
C         -2.47076       -0.50474        6.05883
C         -1.25797       -1.07157        6.46085
N          2.83711       -0.33918        6.56537
C          2.88129        0.03811        5.23624
C          1.88802        0.04803        4.23357
C          2.20228        0.51828        2.96207
C          3.47611        0.98161        2.68119
C          4.47865        0.96476        3.66442
I          6.32179        1.77771        3.07536
C          4.20420        0.46291        4.96950
C          4.96527        0.23904        6.18147
C          6.44347        0.42700        6.41566
C          7.07420       -0.51457        7.47289
N          6.91273       -1.94712        7.07012
C          7.88276       -2.41119        6.04490
C          9.31816       -2.07885        6.37232
C          9.57077       -0.89967        7.22812
C          8.53214       -0.19148        7.68990
O         10.26752       -2.68821        5.88543
C          4.06504       -0.18442        7.14120
O          5.61355       -2.40302        9.20744
S          6.59673       -3.04607        8.34987
C          5.81863       -4.53626        7.51765
F          4.96396       -4.16937        6.52247
F          6.75819       -5.34039        6.94181
F          5.11944       -5.30932        8.39280
O          7.89679       -3.38505        8.90235
H          0.84490       -1.08455        9.83788
H          1.76955        0.36154        9.51093
H          2.57977       -1.18002        9.65306
H          0.45794       -3.30941        9.03212
H          0.28781       -5.69537        8.65370
H          1.06445       -6.65803        6.56944
H          2.01129       -5.22954        4.85629
H          2.18895       -2.84182        5.21972
H          0.36305        1.74829        7.26778
H         -1.74071        2.71754        6.56479
H         -3.54373        1.29069        5.79764
H         -3.23876       -1.11225        5.73306
H         -1.13959       -2.09632        6.43105
H          0.93577       -0.29094        4.44180
H          1.48110        0.52162        2.22388
H          3.69138        1.34336        1.73895
H          6.60129        1.43567        6.73592
H          6.92128        0.19056        5.48792
H          6.55761       -0.35955        8.39702
H          7.63395       -1.95067        5.11168
H          7.81009       -3.47802        6.00635
H         10.53662       -0.62552        7.46685
H          8.74847        0.65159        8.24439
H          4.28603       -0.35615        8.13452
