83
*****
Si        10.27797       -3.94306        4.67655
C         10.50350       -3.22820        6.45856
C         11.48115       -2.05501        6.67975
C         11.02375       -0.74328        6.04054
C         11.67764       -1.83802        8.18535
C          8.95902       -5.60983        4.93063
C          7.70319       -5.13760        5.69723
C          8.52705       -6.13535        3.54640
C          9.65237       -6.71352        5.74857
C         12.14401       -4.65915        4.04474
C         12.91280       -5.23600        5.25961
C         12.01776       -5.76023        2.97471
C         12.97561       -3.48784        3.46799
N          9.48233       -2.87853        3.52930
C          8.45081       -1.98237        3.76607
C          7.73379       -1.66261        4.93905
C          6.73422       -0.69605        4.90602
C          6.43073       -0.04906        3.72389
C          7.11930       -0.35856        2.54031
I          6.48091        0.71814        0.85716
C          8.15420       -1.34098        2.53681
C          9.05192       -1.90508        1.55544
C          9.19668       -1.61309        0.08620
C         10.35616       -0.67191       -0.32030
N         10.19172        0.70200        0.21932
C         10.81530        0.98165        1.53305
C         12.22381        0.46510        1.66592
C         12.61199       -0.69719        0.84169
C         11.73194       -1.21274       -0.02445
O         13.03440        0.92687        2.46641
C          9.79330       -2.87638        2.20248
O          9.80847        3.19543       -0.19072
S         10.13589        1.97613       -0.89768
C         11.82652        2.11242       -1.44132
C         12.23584        1.45537       -2.60627
C         13.55892        1.57166       -3.03201
C         14.46053        2.35061       -2.30508
C         14.04112        3.02613       -1.15792
C         12.71899        2.91812       -0.72759
O          9.34832        1.54037       -2.03243
H         10.83625       -4.03392        7.07904
H          9.54616       -2.80903        6.68815
H         12.39831       -2.32741        6.20067
H         10.10482       -0.42905        6.48970
H         10.87577       -0.89048        4.99110
H         11.77059        0.00752        6.19357
H         10.74348       -1.56770        8.63164
H         12.38838       -1.05385        8.34293
H         12.03813       -2.74114        8.63181
H          7.21179       -4.36917        5.13782
H          7.99228       -4.75348        6.65315
H          7.03589       -5.96317        5.83156
H          8.04880       -5.34953        2.99990
H          7.84430       -6.94971        3.67122
H          9.38836       -6.47140        3.00778
H          9.94101       -6.32288        6.70198
H         10.52113       -7.05340        5.22453
H          8.97707       -7.53171        5.88797
H         12.35857       -6.04966        5.67877
H         13.03798       -4.47183        5.99803
H         13.87285       -5.58497        4.94116
H         11.44376       -6.57393        3.36625
H         12.99274       -6.10882        2.70489
H         11.52911       -5.36270        2.10979
H         13.06775       -2.71854        4.20595
H         12.48514       -3.09461        2.60213
H         13.94878       -3.84074        3.19722
H          7.95183       -2.14734        5.82365
H          6.21735       -0.46137        5.76788
H          5.69001        0.66940        3.71067
H          8.28342       -1.16679       -0.24799
H          9.42387       -2.55469       -0.36842
H         10.28781       -0.61771       -1.38674
H         10.21661        0.52531        2.29345
H         10.86575        2.04596        1.63107
H         13.55413       -1.10835        0.93297
H         12.02207       -2.05964       -0.53788
H         10.47701       -3.50330        1.75022
H         11.56378        0.88868       -3.14684
H         13.87136        1.08158       -3.88479
H         15.44125        2.42742       -2.61703
H         14.71007        3.60609       -0.62766
H         12.40177        3.42892        0.11115
