75
*****
Si         9.31905        5.82867        6.00454
C          8.66837        5.23910        7.71875
C          9.11268        5.84480        8.90952
C          8.65926        5.39766       10.15295
C          7.75898        4.33895       10.23042
C          7.31327        3.72214        9.06523
C          7.76536        4.16349        7.81921
C         11.22515        5.48108        6.05123
C         11.81182        4.66030        7.03093
C         13.18488        4.39965        7.01492
C         13.99207        4.94260        6.01891
C         13.42786        5.74149        5.02944
C         12.05617        6.00362        5.03898
C          9.01458        7.88706        5.86398
C         10.27529        8.63968        6.35838
C          8.75665        8.26341        4.38867
C          7.82881        8.35575        6.73405
N          8.57450        4.91580        4.70039
C          7.25174        4.89584        4.29402
C          6.11153        5.55880        4.78844
C          4.88943        5.40701        4.14017
C          4.78687        4.60045        3.02054
C          5.90002        3.88942        2.54648
I          5.56472        2.73762        0.83230
C          7.15923        4.00043        3.20033
C          8.44827        3.36581        3.08567
C          8.90065        2.19872        2.24999
C          8.50193        0.81272        2.82957
N          9.18156       -0.28723        2.13330
C         10.54957       -0.63659        2.52732
C         10.80228       -0.58277        4.02404
C          9.77437        0.03383        4.88457
C          8.74483        0.66952        4.31435
O         11.84802       -0.98423        4.53098
C          9.28488        3.98715        3.99334
C          8.62817       -0.75767        0.95724
O          9.41476       -1.68048        0.34367
C          8.87666       -2.30130       -0.84570
C          8.29471       -3.70052       -0.57421
Cl         6.89990       -3.65136        0.54297
Cl         7.75331       -4.42754       -2.12446
Cl         9.55162       -4.77132        0.13225
O          7.55057       -0.39437        0.51012
H          9.78185        6.62908        8.86321
H          8.99278        5.85365       11.01658
H          7.42278        4.01214       11.14976
H          6.64673        2.93630        9.12180
H          7.43327        3.69524        6.96160
H         11.22218        4.24599        7.76964
H         13.60248        3.80172        7.74506
H         15.00648        4.75292        6.01460
H         14.02372        6.14088        4.28751
H         11.64486        6.58812        4.29453
H         11.12127        8.33925        5.77616
H         10.44958        8.40571        7.38783
H         10.12575        9.69389        6.25258
H          9.58006        7.93733        3.78820
H          8.65210        9.32495        4.30441
H          7.85907        7.78871        4.05117
H          8.01037        8.09365        7.75544
H          6.93054        7.88112        6.39829
H          7.72357        9.41736        6.65153
H          6.18209        6.15471        5.62805
H          4.05502        5.89875        4.49649
H          3.88281        4.52100        2.52923
H          9.96702        2.23564        2.17003
H          8.41252        2.28950        1.30215
H          7.44591        0.75517        2.66707
H         11.22060        0.04625        2.04947
H         10.70510       -1.65166        2.22675
H          9.84874       -0.02459        5.91223
H          8.05290        1.10187        4.94628
H         10.28861        3.78195        4.11762
H          9.65976       -2.39078       -1.56933
H          8.07887       -1.68274       -1.20041
