68
*****
C         11.76606       -0.14098        5.34059
C         11.84012       -1.65954        5.43357
Si        12.19085       -2.55008        3.77230
C         13.92436       -2.07516        3.15555
C         15.07124       -2.39427        4.10547
C         12.14778       -4.42791        4.15641
C         12.32900       -5.33348        2.94568
N         10.93948       -2.15172        2.62366
C          9.58006       -2.35486        2.76671
C          8.82080       -2.95040        3.79641
C          7.43294       -3.00241        3.67947
C          6.79999       -2.47090        2.56747
C          7.54437       -1.87416        1.54101
Br         6.55486       -1.17300        0.07991
C          8.96199       -1.81031        1.62032
C         10.01680       -1.28591        0.78827
C          9.91712       -0.55970       -0.52203
C          9.62658        0.94761       -0.34466
N         10.81396        1.64318        0.22111
C         11.85605        2.05097       -0.74226
C         11.29955        2.80041       -1.92598
C          9.93221        2.45371       -2.36913
C          9.21074        1.58746       -1.64678
O         11.94977        3.62354       -2.56490
C         11.21105       -1.54140        1.43499
S         10.59142        2.59903        1.59814
C          9.76219        4.03969        0.95631
C          8.36555        4.09352        0.96314
C          7.71764        5.22659        0.46757
C          8.45709        6.31358       -0.02911
C          7.74681        7.54352       -0.54509
F          6.60682        7.24436       -1.22893
F          7.37268        8.38412        0.45748
F          8.50564        8.28705       -1.39693
C          9.86027        6.25563        0.00360
C         10.51370        5.12599        0.50065
O          9.66414        1.92948        2.48393
O         11.89246        3.02296        2.07027
H         11.56810        0.26647        6.30997
H         10.98053        0.13738        4.66949
H         12.69750        0.23995        4.97699
H         10.90467       -2.01599        5.81140
H         12.66684       -1.88224        6.07532
H         13.93152       -1.02081        2.97336
H         14.09589       -2.66664        2.28055
H         14.95568       -1.82914        5.00668
H         16.00069       -2.13880        3.64098
H         15.06310       -3.43908        4.33614
H         11.20197       -4.65446        4.60252
H         12.97790       -4.62138        4.80322
H         11.52087       -5.18002        2.26136
H         12.33863       -6.35534        3.26284
H         13.25483       -5.10138        2.46207
H          9.28866       -3.34360        4.62798
H          6.87229       -3.44030        4.42710
H          5.77151       -2.51483        2.49449
H          9.12677       -0.99590       -1.09646
H         10.86142       -0.65200       -1.01668
H          8.81086        1.04405        0.34105
H         12.35484        1.17351       -1.09746
H         12.52592        2.71022       -0.23082
H          9.53851        2.87452       -3.22525
H          8.28118        1.33288       -2.01575
H         12.15108       -1.30914        1.07803
H          7.81695        3.30106        1.33201
H          6.68640        5.26628        0.46597
H         10.41324        7.05515       -0.34285
H         11.54474        5.09370        0.53123
