70
*****
C          7.54631        7.87803        6.03697
Si         8.73637        6.56442        5.43658
C         10.50174        7.17198        5.69802
C          8.53234        5.01515        6.48766
N          8.50368        6.16967        3.75307
C          9.19096        5.22346        3.01700
C         10.25229        4.35735        3.35621
C         10.73853        3.46673        2.40092
C         10.18986        3.43021        1.12919
C          9.14594        4.29626        0.77739
Br         8.47650        4.13471       -0.99131
C          8.62822        5.22353        1.72196
C          7.61020        6.24530        1.71028
C          6.74173        6.70375        0.57471
C          5.44710        5.87746        0.41218
N          4.47739        6.06902        1.50153
C          3.82286        7.37374        1.59564
C          3.21903        7.77721        0.25658
C          3.70417        7.08526       -0.96514
C          4.73970        6.23796       -0.87583
O          2.43512        8.71667        0.13620
C          7.56944        6.79260        2.97902
C          3.91809        5.01205        2.20140
O          4.50945        3.81899        1.92757
C          3.87501        2.68002        2.54253
C          4.67626        1.42058        2.19851
C          3.86116        0.13911        2.33385
C          2.70681       -0.22326        1.65516
C          2.13958       -1.46747        1.93713
C          2.72836       -2.32872        2.87734
C          3.89813       -1.96265        3.55028
C          4.46203       -0.72827        3.27166
C          5.65472       -0.09899        3.79631
C          5.81093        1.16548        3.18748
C          6.87866        1.98961        3.50467
C          7.79867        1.53830        4.45240
C          7.64640        0.28328        5.06329
C          6.56938       -0.54560        4.73595
O          2.97385        5.13023        2.97325
H          7.73162        8.08144        7.07099
H          6.54139        7.53093        5.91627
H          7.68548        8.77279        5.46694
H         10.64628        7.41457        6.73008
H         10.67155        8.04271        5.09978
H         11.18937        6.40348        5.41258
H          8.67590        5.26224        7.51879
H          9.25666        4.28534        6.19159
H          7.54855        4.61760        6.34978
H         10.66418        4.38324        4.30209
H         11.51337        2.82938        2.64266
H         10.55335        2.75901        0.43464
H          7.30499        6.63146       -0.33216
H          6.44655        7.70897        0.79215
H          5.77258        4.85818        0.41833
H          4.54435        8.10714        1.88973
H          3.03744        7.31062        2.31954
H          3.24802        7.25523       -1.87512
H          5.07809        5.80083       -1.74728
H          6.93721        7.54709        3.28894
H          2.87573        2.58227        2.17270
H          3.84384        2.81142        3.60398
H          5.00346        1.61349        1.19820
H          2.27914        0.40940        0.96100
H          1.27780       -1.75760        1.44907
H          2.29224       -3.24312        3.07403
H          4.33156       -2.59754        4.23881
H          6.99051        2.91081        3.05310
H          8.60126        2.13483        4.70742
H          8.33769       -0.03093        5.76215
H          6.45828       -1.46868        5.18384
