71
*****
C         13.52228       -7.17815        1.85649
C         13.59777       -6.10139        2.93142
Si        11.94367       -5.62304        3.74284
C         11.10341       -7.18490        4.45522
C         11.98290       -8.04556        5.35393
C         12.33435       -4.47549        5.23542
C         13.01989       -3.16597        4.86990
N         10.87249       -4.76800        2.66078
C          9.55148       -4.42847        2.88124
C          8.71895       -4.57306        4.01018
C          7.38208       -4.18904        3.92599
C          6.86716       -3.68714        2.74190
C          7.68983       -3.52282        1.61997
Br         6.84650       -2.90174        0.03868
C          9.06934       -3.85527        1.68309
C         10.20031       -3.73214        0.79899
C         10.30212       -3.08043       -0.55390
C         10.22482       -1.53317       -0.53950
N         11.00173       -0.94131        0.58860
C         12.47173       -0.95290        0.38639
C         12.88651       -0.35636       -0.93964
C         11.89896       -0.37823       -2.04503
C         10.70139       -0.94586       -1.84504
O         14.02659        0.04833       -1.15661
C         11.27623       -4.32327        1.43725
S         10.35933        0.48209        1.25489
C         10.77306        0.30361        2.98104
C         11.88398        0.96769        3.50955
C         12.17213        0.87021        4.87937
C         13.37405        1.58115        5.45945
F         14.44248        1.58077        4.61630
F         13.11544        2.88448        5.74649
F         13.81492        1.01829        6.61845
C         11.30145        0.13794        5.70774
C         10.16350       -0.50640        5.18791
C          9.23955       -1.27941        6.10121
F          9.67221       -2.55077        6.31955
F          9.12695       -0.71016        7.33411
F          7.96936       -1.38573        5.62600
C          9.91512       -0.42986        3.81019
O         11.10842        1.60241        0.72985
O          8.91537        0.44360        1.17952
H         14.50255       -7.36701        1.47139
H         12.88532       -6.84630        1.06335
H         13.12596       -8.07744        2.27968
H         14.01142       -5.22101        2.48565
H         14.19700       -6.51511        3.71542
H         10.77865       -7.78914        3.63405
H         10.30301       -6.83443        5.07282
H         12.80654       -8.42700        4.78735
H         11.40790       -8.86091        5.74054
H         12.35184       -7.45312        6.16498
H         12.97280       -5.00935        5.90793
H         11.39200       -4.21223        5.66853
H         13.97299       -3.37305        4.42987
H         13.15502       -2.57575        5.75210
H         12.41343       -2.62889        4.17087
H          9.09591       -4.95936        4.88978
H          6.77063       -4.27926        4.75244
H          5.86876       -3.43205        2.68581
H          9.50119       -3.44769       -1.16097
H         11.27052       -3.32920       -0.93496
H          9.19307       -1.28549       -0.40152
H         12.81430       -1.96575        0.42751
H         12.90747       -0.35429        1.15885
H         12.13132        0.03955       -2.95963
H         10.05388       -0.98426       -2.64770
H         12.22870       -4.41280        1.05020
H         12.49166        1.52915        2.89270
H         11.50175        0.07209        6.71797
H          9.09862       -0.91487        3.40630
