83
*****
Si         9.98489       -4.19448        4.80438
C         11.07319       -5.47961        3.90474
C         10.44478       -6.34602        2.79083
C         11.53915       -6.79957        1.81677
C          9.72460       -7.58047        3.33638
C         11.06012       -3.32786        6.16573
C         11.90806       -2.10638        5.75473
C         12.41861       -1.39804        7.01446
C         13.09838       -2.48156        4.86989
C          8.52115       -5.05505        5.71934
C          8.84349       -6.23882        6.65613
C          9.31343       -5.78274        8.04007
C          7.59467       -7.11335        6.82399
N          9.35949       -2.94596        3.74894
C          8.53324       -1.89660        4.10634
C          7.98246       -1.51709        5.34964
C          7.15730       -0.39748        5.42048
C          6.88062        0.34230        4.28342
C          7.43314       -0.01479        3.04535
Br         6.98489        1.10886        1.58415
C          8.28508       -1.14867        2.93347
C          9.04232       -1.77421        1.87362
C          9.15409       -1.39198        0.42322
C         10.41926       -0.60053        0.01928
N         10.49546        0.71919        0.69426
C         11.26490        0.78683        1.95585
C         12.59470        0.08311        1.89788
C         12.72094       -1.07094        0.98542
C         11.70599       -1.37338        0.16780
O         13.54614        0.38606        2.61458
C          9.69157       -2.86165        2.42981
O         10.39429        3.26909        0.55992
S         10.48077        2.09880       -0.28648
C         12.10550        2.08762       -1.01694
C         12.29014        1.53549       -2.28881
C         13.56166        1.53912       -2.86187
C         14.63653        2.10230       -2.17240
C         14.44299        2.67458       -0.91407
C         13.17377        2.67906       -0.33599
O          9.52477        1.87735       -1.35174
H         11.44708       -6.15022        4.64998
H         11.79799       -4.88520        3.38877
H          9.71674       -5.73875        2.29478
H         12.25225       -7.40374        2.33769
H         12.03008       -5.94156        1.40725
H         11.09863       -7.36983        1.02579
H         10.42795       -8.21025        3.83995
H          9.27847       -8.11984        2.52710
H          8.96365       -7.27478        4.02369
H         11.73168       -4.06375        6.55609
H         10.34559       -2.93449        6.85826
H         11.27678       -1.46006        5.18144
H         13.04603       -2.06434        7.56879
H         11.58700       -1.10432        7.62031
H         12.97920       -0.53097        6.73369
H         13.75486       -3.13021        5.41136
H         13.62629       -1.59477        4.58737
H         12.74650       -2.98210        3.99208
H          7.84748       -5.41674        4.97084
H          8.13323       -4.29927        6.36990
H          9.64118       -6.78978        6.20333
H          8.53274       -5.22764        8.51681
H         10.17954       -5.16306        7.93633
H          9.55644       -6.63877        8.63424
H          6.81490       -6.53824        7.27799
H          7.82764       -7.95216        7.44609
H          7.27027       -7.45972        5.86498
H          8.18968       -2.06503        6.19925
H          6.74953       -0.11750        6.32622
H          6.26118        1.16520        4.34785
H          8.30235       -0.79283        0.17735
H          9.21290       -2.31668       -0.11193
H         10.30828       -0.42630       -1.03059
H         10.68003        0.33850        2.73162
H         11.46854        1.82094        2.14038
H         13.58298       -1.63826        0.97843
H         11.81388       -2.21648       -0.41749
H         10.32415       -3.50422        1.92784
H         11.49115        1.12831       -2.79953
H         13.70776        1.12530       -3.79591
H         15.57819        2.09559       -2.59461
H         15.23999        3.09487       -0.41090
H         13.02431        3.11551        0.58715
