48
*****
C          8.52918       -9.83633       -1.34631
Si         6.74164      -10.19442       -1.83070
C          6.72429      -11.56344       -3.10724
C          5.86296      -10.78691       -0.27484
N          6.00491       -8.72419       -2.41372
C          5.79392       -7.55693       -1.70639
C          6.12970       -7.19243       -0.38467
C          5.79121       -5.92574        0.08288
C          5.13694       -5.02719       -0.74230
C          4.80202       -5.37529       -2.05959
Br         3.94488       -4.01855       -3.07278
C          5.12172       -6.66394       -2.57288
C          4.93711       -7.36255       -3.82584
C          4.25791       -6.92181       -5.09196
C          3.06672       -7.81542       -5.53100
N          1.99461       -7.91098       -4.52985
C          1.10008       -6.75863       -4.36434
C          0.68820       -6.11356       -5.68077
C          1.38601       -6.53140       -6.91586
C          2.47621       -7.30255       -6.82109
O         -0.16856       -5.23477       -5.74485
C          5.54453       -8.59774       -3.68927
O          2.72322       -9.98746       -3.85781
C          1.99901       -9.00611       -3.64561
C          1.04613       -8.96836       -2.42607
F         -0.25722       -9.12463       -2.79520
F          1.30493       -9.94375       -1.51205
F          1.11113       -7.78562       -1.74989
H          8.98811      -10.73384       -0.98748
H          8.54811       -9.09359       -0.57633
H          9.06529       -9.47844       -2.20036
H          7.18632      -12.43785       -2.69877
H          7.26343      -11.24793       -3.97596
H          5.71321      -11.78710       -3.37666
H          6.32287      -11.68815        0.07323
H          4.83310      -10.97455       -0.49636
H          5.93349      -10.03480        0.48295
H          6.62202       -7.85949        0.22989
H          6.02930       -5.65504        1.04987
H          4.89272       -4.09054       -0.38444
H          4.98380       -6.92336       -5.87807
H          3.85286       -5.95088       -4.89671
H          3.47451       -8.79667       -5.65646
H          1.60132       -6.02379       -3.76964
H          0.20690       -7.11875       -3.89802
H          1.03676       -6.23212       -7.83970
H          2.94970       -7.56685       -7.69915
H          5.63425       -9.30780       -4.43276
