48
*****
C          1.90565        2.18780       11.57026
Si         3.73496        1.97441       11.15716
C          4.73121        3.15371       12.21659
C          4.19162        0.20436       11.60309
N          3.96280        2.25140        9.44913
C          3.43264        1.52240        8.40346
C          2.56701        0.40734        8.39557
C          2.17031       -0.14383        7.18248
C          2.61683        0.39931        5.99077
C          3.47543        1.51309        5.98085
I          3.99384        2.19615        4.06606
C          3.91097        2.10427        7.20380
C          4.75216        3.21970        7.59525
C          5.50806        4.21237        6.75453
C          6.97714        4.47037        7.18382
N          7.85054        3.29731        7.02978
C          8.25916        2.91931        5.66978
C          8.64463        4.11052        4.80190
C          8.33393        5.46907        5.29667
C          7.56146        5.60760        6.38115
O          9.15758        3.97976        3.69287
C          4.70640        3.28821        8.97620
O          7.81221        2.89236        9.29368
C          8.12340        2.50534        8.15990
C          8.86092        1.15958        7.95274
F         10.16584        1.34496        7.60276
F          8.87066        0.37473        9.06500
F          8.30327        0.40794        6.96054
H          1.75426        2.02006       12.61613
H          1.32865        1.48300       11.00881
H          1.59702        3.18129       11.32002
H          4.55487        2.94041       13.25018
H          4.43573        4.16002       12.00462
H          5.77236        3.03465       12.00041
H          4.04627        0.05201       12.65217
H          5.21752        0.02758       11.35577
H          3.57074       -0.47307       11.05491
H          2.23099        0.00412        9.28413
H          1.54039       -0.96119        7.17075
H          2.31558       -0.01880        5.09665
H          4.98440        5.14461        6.79460
H          5.55899        3.78791        5.77365
H          6.93781        4.71070        8.22574
H          7.44511        2.40711        5.20087
H          9.12713        2.30026        5.76084
H          8.70792        6.29987        4.81199
H          7.34851        6.56796        6.69323
H          5.16317        4.01019        9.55511
