67
*****
C         12.62392       -6.90196       -1.26430
C         12.12326       -6.74377       -2.69370
Si        12.36913       -4.99219       -3.44617
C         14.23056       -4.61171       -3.52888
C         15.06088       -5.56633       -4.37651
C         11.65512       -5.07842       -5.21936
C         11.64572       -3.75503       -5.97144
N         11.49375       -3.83404       -2.47740
C         10.12799       -3.75522       -2.29212
C          9.07984       -4.57584       -2.76145
C          7.76535       -4.26185       -2.43677
C          7.48653       -3.15423       -1.65628
C          8.51975       -2.33230       -1.17154
I          7.87242       -0.73132        0.01349
C          9.88135       -2.62046       -1.48017
C         11.17710       -2.05225       -1.16684
C         11.56304       -0.86327       -0.32965
C         12.34670        0.23903       -1.09177
N         11.50575        1.09066       -1.93530
C         10.74530        2.17957       -1.31814
C         11.49658        2.91665       -0.22330
C         12.75624        2.33139        0.27918
C         13.11311        1.10571       -0.12128
O         11.06911        3.94637        0.29561
C         12.12651       -2.86202       -1.76671
O         11.85284       -0.22531       -3.79560
C         11.27166        0.70025       -3.24534
O         10.33400        1.47678       -3.84597
C          9.90895        1.22909       -5.20998
C          9.18362       -0.11559       -5.31540
C          8.90848        2.35508       -5.51373
C         11.07464        1.33653       -6.19973
H         12.44546       -7.90349       -0.93267
H         12.10472       -6.21727       -0.62671
H         13.67338       -6.69626       -1.22915
H         11.07697       -6.96740       -2.70636
H         12.70581       -7.41265       -3.29214
H         14.61629       -4.63713       -2.53115
H         14.31278       -3.65483       -4.00059
H         15.01848       -6.54810       -3.95315
H         16.07683       -5.23135       -4.39937
H         14.67072       -5.59027       -5.37255
H         10.64705       -5.43133       -5.15498
H         12.29834       -5.73225       -5.77044
H         11.01355       -3.05903       -5.46071
H         11.27616       -3.91113       -6.96339
H         12.64084       -3.36467       -6.01889
H          9.28809       -5.40342       -3.34177
H          6.99483       -4.85696       -2.77906
H          6.50627       -2.92778       -1.42641
H         12.17383       -1.20849        0.47822
H         10.64864       -0.41353       -0.00328
H         13.01562       -0.28230       -1.74420
H          9.85258        1.76849       -0.89510
H         10.54577        2.89316       -2.09008
H         13.35431        2.86191        0.93177
H         13.98781        0.71913        0.26662
H         13.14898       -2.74677       -1.68746
H          8.38101       -0.14429       -4.60837
H          9.87088       -0.90883       -5.10720
H          8.79221       -0.23315       -6.30427
H          8.08654        2.29559       -4.83125
H          8.54818        2.25132       -6.51589
H          9.39404        3.30241       -5.40557
H         11.78259        0.55877       -6.00278
H         11.55041        2.28846       -6.08847
H         10.70455        1.23737       -7.19878
