77
*****
Si         9.99011       -4.59413        5.07944
C         10.05414       -3.66565        6.81898
C         11.02644       -4.28392        7.83020
C         10.36757       -2.16664        6.68032
C          8.79841       -6.18829        5.28342
C          8.83949       -7.08916        4.04193
C          9.03594       -6.99887        6.55774
C         11.76111       -5.13359        4.46744
C         12.76703       -3.97230        4.43022
C         12.38360       -6.31298        5.22330
N          9.17334       -3.57187        3.89974
C          7.95233       -2.93806        4.04805
C          7.00280       -2.96904        5.09212
C          5.85764       -2.18354        5.00144
C          5.65143       -1.37077        3.89994
C          6.58454       -1.33270        2.85096
I          6.10672       -0.02974        1.27807
C          7.75907       -2.13695        2.89869
C          8.89598       -2.37472        2.03997
C          9.24631       -1.76817        0.71164
C         10.02413       -0.44008        0.85792
N         11.40553       -0.69863        1.34867
C         12.40874       -1.05942        0.32706
C         12.41796       -0.11224       -0.84531
C         11.13519        0.52174       -1.21681
C         10.06144        0.32848       -0.44072
O         13.41501        0.09722       -1.53121
C          9.70092       -3.30207        2.67420
S         11.93416        0.14521        2.71499
C         12.20257        1.79204        2.09078
C         11.18319        2.74319        2.18890
C         11.40009        4.03689        1.71087
C         12.63443        4.39066        1.13995
C         12.87043        5.79876        0.64514
F         11.74940        6.36943        0.12143
F         13.28774        6.63256        1.63618
F         13.81519        5.87278       -0.33277
C         13.65844        3.43080        1.08008
C         13.44829        2.13639        1.55970
O         10.84616        0.21768        3.66569
O         13.22377       -0.38413        3.10475
H          9.06320       -3.78978        7.20309
H         12.02924       -4.17520        7.47317
H         10.80176       -5.32299        7.95164
H         10.92694       -3.78510        8.77157
H         11.35861       -2.04353        6.29617
H         10.29580       -1.69708        7.63910
H          9.66639       -1.71623        6.00921
H          7.81329       -5.78231        5.38159
H          9.82075       -7.50161        3.93286
H          8.59671       -6.51201        3.17426
H          8.12963       -7.88206        4.15296
H         10.01176       -7.43660        6.52531
H          8.30028       -7.77242        6.63072
H          8.96201       -6.35489        7.40905
H         11.56694       -5.46863        3.46997
H         12.96158       -3.63684        5.42747
H         12.36030       -3.16638        3.85578
H         13.67958       -4.30513        3.98147
H         12.59458       -6.01971        6.23047
H         13.29167       -6.60713        4.73981
H         11.69905       -7.13534        5.22724
H          7.15676       -3.56997        5.91686
H          5.15806       -2.20707        5.75976
H          4.80246       -0.78623        3.84903
H          8.34255       -1.57949        0.17080
H          9.87617       -2.46009        0.19257
H          9.50755        0.16150        1.57635
H         12.19241       -2.04418       -0.03120
H         13.37197       -1.00709        0.79003
H         11.06812        1.10647       -2.06452
H          9.17347        0.74527       -0.76136
H         10.55953       -3.72058        2.28348
H         10.27628        2.49092        2.61186
H         10.64723        4.73960        1.77738
H         14.57435        3.68467        0.67797
H         14.20786        1.43877        1.52219
