52
*****
C         -1.24332      -11.64901        2.97260
Si         0.34010      -11.41456        3.96634
C         -0.07709      -11.81327        5.76024
C          1.62965      -12.62624        3.35642
N          0.86748       -9.75560        3.84308
C          0.16112       -8.62680        4.21289
C         -1.12675       -8.46708        4.76828
C         -1.59799       -7.18583        5.04529
C         -0.81318       -6.07636        4.77824
C          0.46732       -6.22208        4.22591
Br         1.42461       -4.61380        3.91136
C          0.98476       -7.51369        3.93067
C          2.21435       -8.03622        3.38348
C          3.44445       -7.31200        2.91546
C          4.61336       -7.34708        3.93052
N          5.83331       -6.75393        3.37248
C          6.01432       -5.30225        3.44293
C          5.55223       -4.67842        4.74783
C          4.72155       -5.49290        5.65646
C          4.29160       -6.69287        5.24992
O          5.79023       -3.50778        5.03912
C          2.08941       -9.41322        3.34541
C          6.58754       -7.53162        2.51137
O          7.59266       -6.83404        1.92109
C          8.46742       -7.57580        1.04107
C          9.80636       -7.94440        1.70473
Cl         9.58938       -9.03097        3.10772
Cl        10.85305       -8.77313        0.50354
Cl        10.65737       -6.46315        2.25608
O          6.37267       -8.71649        2.29178
H         -1.56517      -12.66657        3.04930
H         -1.05895      -11.40965        1.94615
H         -2.00508      -11.00397        3.35800
H         -0.40016      -12.83069        5.83364
H         -0.85932      -11.16549        6.09697
H          0.79133      -11.67004        6.36870
H          1.25595      -13.62409        3.45417
H          2.52151      -12.52081        3.93812
H          1.84870      -12.42653        2.32830
H         -1.71390       -9.29211        4.96731
H         -2.53829       -7.06248        5.45227
H         -1.17457       -5.13272        4.98793
H          3.18570       -6.28977        2.73383
H          3.78335       -7.81136        2.03189
H          4.77824       -8.38636        4.12447
H          5.46050       -4.85615        2.64344
H          7.06634       -5.12045        3.37159
H          4.47523       -5.14071        6.59471
H          3.68462       -7.21823        5.89844
H          2.80328      -10.07239        2.99770
H          8.66742       -6.97957        0.17539
H          7.97092       -8.48903        0.78731
