79
*****
Si         9.81898       -3.84231        4.99726
C         10.42764       -2.90526        6.59892
C          9.39677       -2.67440        7.72349
C          9.45477       -3.78264        8.77961
C          9.65572       -1.32551        8.40342
C          8.75658       -5.33200        5.59713
C          8.10273       -6.27620        4.57375
C          9.08791       -7.30646        4.01681
C          6.93458       -7.01931        5.23487
C         11.40066       -4.49930        4.13160
C         12.56543       -3.50533        3.93109
C         13.83299       -4.27668        3.54674
C         12.27060       -2.45440        2.85728
N          8.87252       -2.79585        3.96494
C          8.52618       -2.98627        2.63873
C          8.77256       -4.04699        1.74130
C          8.28944       -3.97441        0.43650
C          7.56511       -2.87211        0.01756
C          7.31074       -1.81178        0.89693
Br         6.28065       -0.37934        0.20415
C          7.79657       -1.84468        2.23206
C          7.74604       -0.95736        3.36470
C          7.14226        0.41351        3.49649
C          8.03470        1.57108        2.97690
N          7.48117        2.88274        3.34112
C          7.75117        3.42098        4.67679
C          9.14957        3.14213        5.19923
C         10.00459        2.20547        4.44526
C          9.46812        1.49656        3.44603
O          9.57095        3.62690        6.24767
C          8.39421       -1.59657        4.40501
C          6.45764        3.39269        2.56240
O          5.89643        4.50639        3.10238
C          4.84685        5.13891        2.33512
C          5.33471        6.38417        1.57371
Cl         6.57763        5.98813        0.35188
Cl         3.94189        7.15092        0.73884
Cl         6.02379        7.58328        2.71946
O          6.08330        2.89891        1.50837
H         10.78725       -1.94548        6.29166
H         11.16235       -3.55217        7.03088
H          8.42543       -2.68228        7.27479
H         10.42143       -3.78793        9.23835
H          9.27593       -4.72910        8.31364
H          8.70746       -3.60495        9.52450
H         10.62919       -1.33102        8.84753
H          8.91877       -1.16092        9.16151
H          9.60000       -0.54286        7.67592
H          7.96502       -4.92638        6.19194
H          9.47085       -5.95989        6.08752
H          7.76100       -5.67172        3.75967
H          9.44526       -7.92514        4.81333
H          9.91298       -6.80061        3.56043
H          8.59429       -7.91394        3.28729
H          7.30291       -7.61498        6.04383
H          6.46011       -7.65147        4.51365
H          6.22604       -6.30974        5.60819
H         11.11286       -4.85589        3.16469
H         11.78723       -5.24376        4.79585
H         12.70038       -2.98664        4.85718
H         13.67324       -4.78580        2.61929
H         14.06165       -4.99026        4.31056
H         14.64893       -3.59244        3.44208
H         12.12936       -2.93859        1.91361
H         13.09319       -1.77351        2.78922
H         11.38320       -1.91668        3.11860
H          9.30842       -4.87311        2.05019
H          8.47291       -4.74768       -0.22184
H          7.20955       -2.83095       -0.95038
H          6.93891        0.58932        4.53218
H          6.26285        0.41476        2.88695
H          8.03796        1.45559        1.91316
H          7.04798        2.99036        5.35869
H          7.66265        4.48448        4.59907
H         11.00255        2.09882        4.68552
H         10.09029        0.83891        2.95064
H          8.49948       -1.22551        5.36223
H          4.06352        5.43119        3.00286
H          4.50523        4.43026        1.60985
