73
*****
C          3.22305       -0.93438        8.52218
Si         3.14834        0.91434        8.17732
C          1.32158        1.39433        7.87357
C          0.28069        0.74654        8.56372
C         -1.05213        1.09950        8.33767
C         -1.36599        2.10461        7.42638
C         -0.34798        2.76317        6.74214
C          0.98624        2.41539        6.96367
C          3.63398        1.93666        9.70123
C          4.17981        1.33210       10.84770
C          4.55361        2.10359       11.95196
C          4.39262        3.48684       11.92904
C          3.85552        4.10296       10.80282
C          3.47684        3.33666        9.69882
N          4.14393        1.25847        6.78663
C          3.90537        0.87486        5.48006
C          2.89532        0.07119        4.90922
C          2.86934       -0.10627        3.52725
C          3.81571        0.50603        2.72012
C          4.82043        1.30758        3.27961
Br         6.03394        2.11654        2.06444
C          4.89282        1.49555        4.68581
C          5.75675        2.21839        5.58625
C          6.93182        3.09944        5.27776
C          6.50631        4.55644        4.98568
N          6.00083        5.20652        6.22526
C          7.01845        5.77870        7.12904
C          7.99880        6.67096        6.41058
C          8.31325        6.34226        5.00327
C          7.63979        5.35782        4.39478
O          8.58423        7.60229        6.95693
C          5.28591        1.99996        6.86648
S          4.47755        5.93447        6.18195
C          4.77526        7.42320        5.25031
C          4.56847        7.42804        3.86822
C          4.79921        8.59807        3.14197
C          5.22940        9.76908        3.78926
C          5.45892       11.03593        2.99804
F          5.99102       10.79834        1.76634
F          4.30684       11.72698        2.78171
F          6.31105       11.90522        3.60840
C          5.39867        9.75454        5.18360
C          5.16657        8.58825        5.91544
O          3.58761        5.10392        5.39925
O          4.12218        6.33060        7.52805
H          2.61678       -1.16315        9.37365
H          4.23543       -1.22003        8.71807
H          2.85940       -1.47098        7.67088
H          0.50390        0.00313        9.24382
H         -1.80643        0.61378        8.84769
H         -2.35148        2.36086        7.25854
H         -0.58001        3.51049        6.06931
H          1.73445        2.91198        6.45512
H          4.30574        0.30815       10.87410
H          4.95050        1.64626       12.78764
H          4.67101        4.05354       12.74536
H          3.73691        5.12794       10.78357
H          3.07626        3.80229        8.86951
H          2.18521       -0.37920        5.50748
H          2.13949       -0.69848        3.10107
H          3.78016        0.37044        1.69769
H          7.43925        2.70982        4.42008
H          7.57052        3.10885        6.13618
H          5.71817        4.52730        4.26257
H          7.55814        4.97695        7.58820
H          6.50725        6.37752        7.85360
H          9.04362        6.86585        4.49588
H          7.92297        5.12517        3.43004
H          5.72429        2.34040        7.73651
H          4.24751        6.57294        3.38778
H          4.65252        8.60303        2.12046
H          5.69725       10.61352        5.67149
H          5.28323        8.58665        6.94082
