63
*****
C         11.26881        1.07130       -8.05942
Si        10.35974        2.71724       -8.05130
C         11.42711        4.01868       -7.17806
C         10.17329        3.31256      -10.10938
C          9.96173        4.84268      -10.15774
C         11.45784        2.85325      -10.92699
C         11.28408        2.98999      -12.45199
C         12.76072        3.57285      -10.55207
C          8.92037        2.57946      -10.66344
N          8.84238        2.66940       -7.17388
C          8.59250        2.00467       -5.98395
C          9.44552        1.28113       -5.12275
C          8.92340        0.66190       -3.99281
C          7.57527        0.76339       -3.70403
C          6.71617        1.51097       -4.52787
I          4.73181        1.59175       -3.86297
C          7.21447        2.16660       -5.69205
C          6.68440        3.04013       -6.71490
C          5.30380        3.59514       -6.93340
C          4.65180        3.17284       -8.27903
N          4.15443        1.78868       -8.28794
C          2.85243        1.50537       -7.66894
C          1.79667        2.57519       -7.90019
C          2.22035        3.86162       -8.48568
C          3.52576        4.11146       -8.63553
O          0.62153        2.42323       -7.57419
C          7.74993        3.40031       -7.52167
O          6.10278        1.04083       -9.25629
C          5.03172        0.76718       -8.70142
C          4.59867       -0.70426       -8.48720
F          3.57631       -1.05799       -9.31768
F          5.59945       -1.59939       -8.71018
F          4.15489       -0.93584       -7.21828
H         12.18149        1.17065       -8.60900
H         10.65412        0.32663       -8.52044
H         11.48810        0.78000       -7.05347
H         12.37330        4.09376       -7.67201
H         11.57871        3.73018       -6.15890
H         10.93163        4.96649       -7.21050
H         10.83065        5.33518       -9.77393
H          9.11158        5.10417       -9.56296
H          9.79648        5.14808      -11.16983
H         11.54485        1.82452      -10.64584
H         11.19927        4.02497      -12.70991
H         10.39895        2.47247      -12.75794
H         12.13338        2.56748      -12.94704
H         12.69021        4.60452      -10.82701
H         13.57998        3.12065      -11.07095
H         12.92024        3.49504       -9.49689
H          8.05512        2.88736      -10.11441
H          9.05084        1.52248      -10.56017
H          8.79234        2.82370      -11.69730
H         10.45385        1.21204       -5.33135
H          9.54427        0.12469       -3.36754
H          7.19481        0.28417       -2.87299
H          5.36430        4.66319       -6.91072
H          4.68646        3.19758       -6.15512
H          5.43116        3.22808       -9.01008
H          2.99927        1.40360       -6.61396
H          2.48532        0.61183       -8.12908
H          1.51814        4.55994       -8.77597
H          3.78610        5.02866       -9.03048
H          7.71991        4.11130       -8.26907
