80
*****
Si         9.94723       -4.60876        5.22259
C         10.39336       -3.35016        6.71181
C         10.66452       -4.02562        8.05616
C         11.54014       -2.40513        6.32841
C          8.63558       -5.90754        5.91897
C          7.73522       -6.48932        4.81773
C          9.25139       -7.06028        6.72055
C         11.55366       -5.47968        4.54429
C         12.49813       -6.03578        5.61598
C         11.25807       -6.58058        3.51370
N          9.18422       -3.59886        3.99581
C          8.02417       -2.85595        4.13211
C          7.10336       -2.73140        5.19477
C          6.00869       -1.87971        5.05762
C          5.82512       -1.15234        3.89320
C          6.73542       -1.26297        2.83386
Br         6.38422       -0.19261        1.30520
C          7.85707       -2.13047        2.93222
C          8.96242       -2.48080        2.07702
C          9.29797       -1.97449        0.70388
C         10.10038       -0.65413        0.73713
N         11.47093       -0.89572        1.26387
C         12.46885       -1.38508        0.29116
C         12.52190       -0.52559       -0.94767
C         11.25501        0.08815       -1.40186
C         10.16702       -0.01270       -0.62767
O         13.54285       -0.36132       -1.60948
C          9.74227       -3.38649        2.77021
S         12.01837        0.05916        2.54465
C         12.44704        1.59394        1.74040
C         11.47838        2.59278        1.59842
C         11.80313        3.80183        0.96502
C         10.75528        4.88045        0.80835
F          9.54524        4.37752        0.43732
F         10.54316        5.56852        1.96123
F         11.07717        5.80834       -0.13405
C         13.11923        3.99783        0.50951
C         14.10515        3.00610        0.67001
C         15.51748        3.25822        0.18884
F         16.15262        4.19756        0.94177
F         16.30934        2.15278        0.21901
F         15.55520        3.71705       -1.09204
C         13.75923        1.80284        1.30166
O         10.91216        0.34144        3.43190
O         13.24732       -0.51795        3.04532
H          9.50415       -2.77312        6.85753
H         11.54809       -4.62461        7.98256
H          9.83330       -4.64672        8.31734
H         10.80196       -3.27831        8.80951
H         12.43525       -2.97231        6.18013
H         11.69415       -1.69439        7.11328
H         11.29058       -1.88981        5.42449
H          8.04282       -5.32532        6.59318
H          8.32762       -7.07163        4.14328
H          7.26583       -5.69088        4.28194
H          6.98534       -7.11051        5.26125
H          9.85245       -7.66384        6.07299
H          8.47081       -7.65816        7.14261
H          9.86068       -6.66334        7.50548
H         12.06502       -4.67206        4.06349
H         12.02271       -6.84931        6.12297
H         12.73219       -5.26473        6.31996
H         13.39874       -6.38147        5.15306
H         10.74664       -7.38933        3.99250
H         12.17766       -6.93628        3.09809
H         10.64411       -6.18267        2.73292
H          7.23968       -3.26681        6.06643
H          5.32964       -1.79029        5.82959
H          5.01130       -0.52387        3.80521
H          8.38700       -1.80850        0.16772
H          9.90799       -2.71256        0.22637
H          9.59050        0.02245        1.39071
H         12.21279       -2.38443        0.00718
H         13.43052       -1.34906        0.75893
H         11.21016        0.58767       -2.30380
H          9.29078        0.38602       -0.99949
H         10.60533       -3.82940        2.41810
H         10.52386        2.44033        1.95990
H         13.36720        4.88702        0.04813
H         14.47290        1.07092        1.44302
