58
*****
C         12.72869       -6.11174        4.99381
C         13.44634       -4.93079        5.63439
Si        12.34130       -3.59095        6.40282
C         11.02734       -4.41673        7.53190
C         11.58840       -5.29146        8.64549
C         13.42620       -2.49692        7.55374
C         14.41314       -1.59032        6.83036
N         11.54702       -2.57754        5.22483
C         10.74543       -1.47949        5.47834
C         10.28030       -0.91181        6.68403
C          9.49711        0.24026        6.64017
C          9.18471        0.83279        5.42743
C          9.64313        0.27874        4.22465
Br         9.17803        1.20913        2.63633
C         10.42737       -0.90654        4.22778
C         11.04224       -1.73601        3.22161
C         11.03648       -1.57852        1.72875
C         12.19644       -0.69240        1.22085
N         13.48125       -1.44179        1.28057
C         13.78742       -2.34441        0.14788
C         13.50171       -1.76023       -1.21175
C         12.53355       -0.64813       -1.29584
C         11.94360       -0.20258       -0.18065
O         13.99417       -2.20414       -2.24561
C         11.70900       -2.74997        3.88240
O         15.80742       -1.74412        2.22265
S         14.78718       -0.71572        2.10172
C         15.37462        0.63284        0.95207
F         15.69782        0.13651       -0.27608
F         14.41058        1.57564        0.74541
F         16.47345        1.28079        1.42485
O         14.24163       -0.12262        3.31001
H         13.45026       -6.79563        4.59817
H         12.09927       -5.76036        4.20308
H         12.13241       -6.60884        5.73018
H         14.04610       -4.46567        4.88018
H         14.00327       -5.34339        6.44955
H         10.39825       -5.02604        6.91718
H         10.50618       -3.61721        8.01570
H         12.12377       -6.11336        8.21799
H         10.78478       -5.66310        9.24631
H         12.25079       -4.71241        9.25446
H         13.98114       -3.14340        8.20105
H         12.75266       -1.85115        8.07740
H         15.11447       -2.18834        6.28685
H         14.93540       -0.98935        7.54519
H         13.88298       -0.95628        6.15078
H         10.51795       -1.34579        7.58968
H          9.14717        0.65516        7.51791
H          8.60952        1.68946        5.40968
H         10.10971       -1.13181        1.43472
H         11.15917       -2.55093        1.29950
H         12.25939        0.16309        1.86045
H         13.20089       -3.23227        0.26010
H         14.84038       -2.53122        0.18366
H         12.31374       -0.21797       -2.20780
H         11.24695        0.55065       -0.29179
H         12.24147       -3.51173        3.43382
