63
*****
C          7.52228        2.28241       -8.79122
Si         6.38733        0.78981       -8.60306
C          4.60628        1.36699       -8.99763
C          4.36292        2.25005      -10.06616
C          3.06452        2.67306      -10.36020
C          1.99102        2.21945       -9.59833
C          2.21216        1.33842       -8.54318
C          3.50805        0.91161       -8.24444
C          6.75483       -0.52604       -9.92325
C          8.02146       -0.60369      -10.53140
C          8.29706       -1.58800      -11.48429
C          7.31741       -2.51012      -11.84308
C          6.05899       -2.45009      -11.25138
C          5.77791       -1.46749      -10.29943
N          6.53603        0.17377       -6.97757
C          6.20769        0.83359       -5.80793
C          5.66393        2.11578       -5.57753
C          5.41549        2.52326       -4.26843
C          5.70004        1.68325       -3.20323
C          6.24017        0.40855       -3.42285
Br         6.58828       -0.63891       -1.87872
C          6.50473       -0.04454       -4.74343
C          7.03001       -1.25182       -5.33297
C          7.48601       -2.51840       -4.66365
C          6.32413       -3.48846       -4.34907
N          5.64494       -3.92615       -5.60618
C          6.36302       -4.97935       -6.36919
C          6.80341       -6.14852       -5.52055
C          7.00047       -5.91493       -4.07309
C          6.80241       -4.68838       -3.57342
O          7.08849       -7.24411       -5.99906
C          7.04475       -1.06246       -6.70230
O          3.45567       -3.06416       -4.62130
S          3.94104       -4.09225       -5.52665
C          3.35734       -3.69246       -7.25668
F          3.79365       -2.46766       -7.66998
F          3.80883       -4.59355       -8.17555
F          1.99831       -3.68103       -7.35141
O          3.69644       -5.48869       -5.21004
H          7.44009        2.66991       -9.78520
H          8.53386        1.98687       -8.60613
H          7.23729        3.03793       -8.08917
H          5.15209        2.58864      -10.63851
H          2.90047        3.32363      -11.14434
H          1.03297        2.53577       -9.81538
H          1.41629        0.99977       -7.98022
H          3.66192        0.25530       -7.46303
H          8.75500        0.07382      -10.27079
H          9.22988       -1.63161      -11.92357
H          7.52396       -3.23663      -12.54632
H          5.33215       -3.13300      -11.51661
H          4.84198       -1.43107       -9.86615
H          5.45301        2.74362       -6.36895
H          5.01635        3.45816       -4.09047
H          5.51239        1.99942       -2.23895
H          7.97417       -2.26253       -3.74652
H          8.14553       -3.01870       -5.34162
H          5.61987       -2.95923       -3.74176
H          7.23039       -4.54070       -6.81657
H          5.67784       -5.36108       -7.09701
H          7.28771       -6.68950       -3.45457
H          6.99428       -4.55309       -2.56848
H          7.38399       -1.74271       -7.40030
