63
*****
C          5.28204      -11.73973        1.33746
Si         5.59954      -10.01542        2.02944
C          4.93602       -9.89328        3.77908
C          7.75515       -9.87023        2.21034
C          8.14172      -11.04246        3.15577
C          8.40692      -10.00948        0.77705
C          8.45089       -8.69989       -0.02555
C          9.84160      -10.56168        0.82297
C          8.08835       -8.53495        2.91124
N          5.04026       -8.75761        0.96309
C          4.76103       -7.43926        1.26630
C          4.89438       -6.70239        2.46216
C          4.55701       -5.35145        2.47918
C          4.10789       -4.72744        1.32862
C          3.97357       -5.44577        0.13226
Br         3.41741       -4.43718       -1.37579
C          4.28165       -6.83400        0.08076
C          4.23563       -7.86907       -0.92551
C          3.76343       -7.81520       -2.35378
C          2.28434       -8.23701       -2.58467
N          1.97255       -9.61918       -2.18361
C          1.43280       -9.88069       -0.84112
C          0.61802       -8.76483       -0.21228
C          0.51360       -7.48499       -0.93255
C          1.28196       -7.27675       -2.00643
O          0.04897       -8.89800        0.86936
C          4.76611       -9.00932       -0.34995
O          3.03818      -10.39728       -4.06303
C          2.47876      -10.65675       -2.99031
C          2.30997      -12.11695       -2.50136
F          1.00151      -12.49285       -2.44566
F          2.93810      -13.02562       -3.29613
F          2.81388      -12.29804       -1.24638
H          5.64277      -12.47316        2.02801
H          5.79182      -11.84848        0.40301
H          4.23130      -11.87639        1.18855
H          5.32597      -10.69887        4.36547
H          3.86771       -9.95041        3.76020
H          5.23576       -8.96085        4.20993
H          7.91511      -11.97380        2.68022
H          7.58708      -10.96321        4.06736
H          9.18899      -10.99708        3.37038
H          7.75452      -10.70013        0.28483
H          9.10204       -8.00460        0.46178
H          7.46644       -8.28494       -0.08528
H          8.81482       -8.89818       -1.01203
H         10.47865       -9.85875        1.31788
H         10.19421      -10.72189       -0.17448
H          9.85007      -11.48859        1.35745
H          7.61709       -8.50889        3.87152
H          7.73064       -7.72080        2.31618
H          9.14816       -8.45007        3.03162
H          5.23990       -7.16191        3.31917
H          4.64244       -4.81244        3.35508
H          3.86952       -3.72361        1.35148
H          4.38609       -8.46557       -2.93190
H          3.82563       -6.78773       -2.64590
H          2.18823       -8.19889       -3.64967
H          2.25865      -10.08611       -0.19252
H          0.75132      -10.69660       -0.96264
H         -0.14470       -6.75758       -0.61230
H          1.17700       -6.36859       -2.48523
H          4.92842       -9.90565       -0.83499
