86
*****
Si         9.85469       -4.43917        5.09981
C         11.61251       -5.03515        4.64279
C         12.68904       -3.97727        4.31127
C         13.33477       -3.37150        5.55844
C         13.78071       -4.60916        3.44013
C          9.87053       -3.46201        6.76176
C         10.63531       -4.07081        7.95609
C         10.98583       -2.96293        8.95659
C          9.83055       -5.15445        8.67823
C          8.73742       -5.99796        5.39441
C          8.00440       -6.60628        4.18192
C          8.95260       -7.30059        3.20192
C          6.96109       -7.61521        4.67492
N          9.10472       -3.47733        3.84676
C          7.91538       -2.77833        3.93035
C          6.92396       -2.73798        4.93333
C          5.83553       -1.88377        4.78378
C          5.72657       -1.07684        3.66356
C          6.69514       -1.12339        2.64728
I          6.36498        0.17668        1.03566
C          7.80786       -2.00567        2.75111
C          8.93875       -2.36304        1.92542
C          9.35036       -1.84987        0.57563
C         10.24873       -0.59524        0.67202
N         11.61312       -0.96595        1.14058
C         12.55469       -1.44079        0.10645
C         12.62282       -0.52597       -1.08920
C         11.39419        0.21249       -1.45003
C         10.32585        0.13586       -0.64669
O         13.61901       -0.42311       -1.80010
C          9.65728       -3.32337        2.61206
S         12.25046       -0.13164        2.46646
C         12.62102        1.47586        1.79444
C         11.68503        2.50705        1.91265
C         11.98483        3.77134        1.40181
C         13.21981        4.01599        0.77763
C         13.54886        5.39279        0.24882
F         12.45395        6.05557       -0.21865
F         14.09528        6.19624        1.20139
F         14.43774        5.37241       -0.78262
C         14.16103        2.97616        0.69690
C         13.86799        1.71068        1.20927
O         11.20297        0.04278        3.44906
O         13.50959       -0.74672        2.82887
H         11.51796       -5.66839        3.78549
H         11.97090       -5.50089        5.53695
H         12.19422       -3.18504        3.78933
H         13.84054       -4.13870        6.10662
H         12.57797       -2.93274        6.17458
H         14.03755       -2.61928        5.26661
H         14.25936       -5.39681        3.98365
H         14.50404       -3.86510        3.17924
H         13.34072       -5.00664        2.54944
H          8.85250       -3.33739        7.06669
H         10.40292       -2.56174        6.53598
H         11.52031       -4.52758        7.56489
H         10.08539       -2.52341        9.33200
H         11.57181       -2.21302        8.46753
H         11.54490       -3.37927        9.76838
H          8.93679       -4.72594        9.08131
H         10.41835       -5.56579        9.47208
H          9.57402       -5.92905        7.98608
H          7.99199       -5.72356        6.11132
H          9.42138       -6.76114        5.70206
H          7.53832       -5.79936        3.65604
H          9.43917       -8.11669        3.69399
H          9.68681       -6.60136        2.86001
H          8.39484       -7.66922        2.36651
H          7.45219       -8.41016        5.19623
H          6.42713       -8.01397        3.83779
H          6.27565       -7.12579        5.33488
H          7.00515       -3.33641        5.77017
H          5.10512       -1.85144        5.51212
H          4.92436       -0.43378        3.57439
H          8.47074       -1.60098        0.01956
H          9.91481       -2.61942        0.09180
H          9.80507        0.06687        1.38594
H         12.24072       -2.40943       -0.22226
H         13.52940       -1.46638        0.54710
H         11.36029        0.78044       -2.31103
H          9.47203        0.62401       -0.95928
H         10.47543       -3.83751        2.24966
H         10.77830        2.33508        2.37448
H         11.29327        4.53300        1.48334
H         15.07740        3.14917        0.25489
H         14.56766        0.95393        1.15611
