64
*****
C         -0.73964       -9.14904        6.03132
Si         0.18453       -8.33782        7.48328
C         -1.13897       -7.62918        8.62446
C          1.20304       -9.91299        8.49132
C          1.98684      -10.70766        7.40856
C          2.14309       -9.32964        9.62190
C          1.40645       -8.85911       10.88502
C          3.23511      -10.31878       10.06112
C          0.11908      -10.86759        9.06174
N          1.21805       -7.08427        6.84373
C          0.79927       -5.87342        6.31575
C         -0.49141       -5.36234        6.05735
C         -0.63135       -4.06912        5.56213
C          0.48471       -3.28471        5.32680
C          1.77572       -3.78487        5.56171
I          3.33941       -2.44549        5.16187
C          1.95987       -5.11159        6.04574
C          3.08431       -5.96155        6.35501
C          4.55754       -5.68927        6.25798
C          5.13875       -5.07336        7.55094
N          5.23268       -6.10145        8.62532
C          6.41822       -6.98806        8.60120
C          7.72303       -6.27928        8.34501
C          7.67385       -4.96647        7.66988
C          6.49155       -4.45723        7.30461
O          8.81465       -6.76949        8.62128
C          2.57400       -7.16870        6.79344
O          4.61672       -6.93805       10.93320
S          4.54867       -5.72125       10.14161
C          5.68548       -4.42881       10.86605
F          6.97212       -4.87496       10.93129
F          5.70821       -3.29390       10.10941
F          5.32383       -4.06212       12.12541
O          3.24921       -5.13084        9.87110
H         -1.37975       -9.92169        6.40304
H         -0.03159       -9.57019        5.34854
H         -1.32731       -8.41143        5.52587
H         -1.75170       -8.42356        8.99650
H         -1.74548       -6.93595        8.07996
H         -0.67069       -7.12593        9.44444
H          2.74711      -10.08300        6.98822
H          1.31366      -11.01842        6.63709
H          2.43905      -11.56835        7.85534
H          2.58216       -8.47725        9.14698
H          0.96095       -9.70097       11.37255
H          0.64378       -8.15951       10.61337
H          2.10149       -8.38907       11.54901
H          2.78105      -11.16461       10.53368
H          3.89616       -9.83705       10.75095
H          3.78811      -10.64306        9.20443
H         -0.48934      -11.23490        8.26186
H         -0.49281      -10.33574        9.76005
H          0.59251      -11.68987        9.55633
H         -1.32540       -5.94381        6.23449
H         -1.57273       -3.69279        5.36926
H          0.36669       -2.32178        4.97484
H          4.72713       -5.00956        5.44920
H          5.04871       -6.62636        6.09825
H          4.47233       -4.29893        7.86883
H          6.27590       -7.71558        7.82960
H          6.49379       -7.42198        9.57635
H          8.54474       -4.44588        7.48130
H          6.50787       -3.55418        6.80535
H          3.13223       -8.00018        7.04252
