67
*****
C          3.85238       -0.67730       11.43506
Si         3.47022        1.18334       11.37802
C          1.79344        1.44577       12.19593
C          4.97671        2.11915       12.57277
C          4.75563        3.64909       12.56714
C          4.90886        1.52337       14.04845
C          6.25460        1.59224       14.79322
C          3.86140        2.18876       14.95674
C          6.33124        1.77158       11.89351
N          3.39436        1.69889        9.70650
C          2.54526        1.18477        8.73742
C          1.54883        0.18509        8.80536
C          0.82463       -0.14552        7.66465
C          1.07190        0.50383        6.46861
C          2.05690        1.50136        6.38282
I          2.25532        2.38905        4.50045
C          2.82700        1.86087        7.52539
C          3.89392        2.78746        7.81468
C          4.63616        3.75133        6.92810
C          5.86859        3.15334        6.19971
N          6.67859        4.20437        5.55964
C          7.60401        4.97830        6.38828
C          8.35558        4.14844        7.41464
C          7.91611        2.75716        7.64451
C          6.77404        2.33448        7.09003
O          9.26683        4.60757        8.10048
C          4.17855        2.66572        9.16367
C          6.41210        4.68873        4.29312
O          5.47661        3.95721        3.63743
C          5.21132        4.32726        2.26476
C          5.89297        3.38378        1.25825
Cl         7.67590        3.44173        1.38164
Cl         5.36000        1.69009        1.52745
Cl         5.42395        3.85598       -0.40922
O          6.96302        5.66562        3.80343
H          3.90045       -1.00046       12.45396
H          4.79149       -0.86334       10.95719
H          3.08038       -1.21574       10.92616
H          1.84150        1.13026       13.21722
H          1.05144        0.87279       11.68015
H          1.53508        2.48330       12.15493
H          3.82135        3.87618       13.03665
H          4.74312        4.00394       11.55777
H          5.54940        4.12614       13.10310
H          4.62751        0.50626       13.87173
H          6.51790        2.61582       14.96010
H          7.01291        1.12040       14.20396
H          6.16823        1.08837       15.73319
H          4.13944        3.20637       15.13577
H          3.81141        1.66361       15.88767
H          2.90455        2.15926       14.47877
H          6.35073        2.18254       10.90577
H          6.44089        0.70857       11.83976
H          7.13437        2.18441       12.46749
H          1.35920       -0.29770        9.69754
H          0.09966       -0.87852        7.71092
H          0.52626        0.25241        5.62951
H          4.97144        4.56808        7.53258
H          3.94866        4.04485        6.16254
H          5.45091        2.49756        5.46459
H          7.04446        5.72865        6.90672
H          8.33720        5.39341        5.72873
H          8.48258        2.11931        8.22527
H          6.48620        1.36340        7.28797
H          4.87848        3.22341        9.67758
H          5.57163        5.32147        2.10154
H          4.15486        4.26128        2.10843
