72
*****
C          7.13796       -3.07940       -8.60529
Si         5.52719       -3.77073       -7.86968
C          4.05577       -2.96556       -8.72709
C          2.96780       -3.71031       -9.21771
C          1.89872       -3.08169       -9.86269
C          1.89404       -1.69994      -10.02865
C          2.95935       -0.94277       -9.55159
C          4.03189       -1.56747       -8.90976
C          5.46263       -5.64035       -8.34145
C          6.12603       -6.12938       -9.48056
C          6.09098       -7.49077       -9.79168
C          5.39050       -8.37879       -8.97851
C          4.72086       -7.90900       -7.85164
C          4.75549       -6.55052       -7.53147
N          5.64029       -3.65307       -6.13224
C          4.79745       -3.03803       -5.23143
C          3.53339       -2.43382       -5.38898
C          2.91555       -1.84224       -4.29029
C          3.52760       -1.85552       -3.04840
C          4.77810       -2.46908       -2.87231
I          5.52449       -2.44037       -0.91077
C          5.44552       -3.07954       -3.97299
C          6.70444       -3.77648       -4.16658
C          7.79919       -4.01237       -3.14575
C          9.15611       -4.58494       -3.67865
N         10.25089       -3.59214       -3.75421
C         11.64272       -4.02725       -3.60982
C         11.89996       -5.21072       -2.70485
C         10.75736       -6.05340       -2.32789
C          9.54517       -5.76345       -2.80847
O         13.03088       -5.54524       -2.35674
C          6.72172       -4.18530       -5.48586
O          8.93150       -2.02302       -4.84074
C         10.02641       -2.40776       -4.46268
O         11.17595       -1.72109       -4.70220
C         11.14953       -0.43437       -5.37511
C         10.46309        0.61642       -4.49600
C         12.62864       -0.05372       -5.53907
C         10.51552       -0.51865       -6.76984
H          7.09692       -3.13898       -9.67284
H          7.96800       -3.65219       -8.24774
H          7.25562       -2.05790       -8.30933
H          2.95881       -4.73551       -9.09977
H          1.10972       -3.64454      -10.21723
H          1.10286       -1.23839      -10.50407
H          2.95740        0.08218       -9.67200
H          4.81902       -0.99663       -8.56394
H          6.64279       -5.47763      -10.09146
H          6.58595       -7.83999      -10.62719
H          5.36787       -9.38399       -9.21105
H          4.19795       -8.56627       -7.25198
H          4.25843       -6.20995       -6.69364
H          3.06985       -2.43003       -6.31101
H          1.99449       -1.39048       -4.40247
H          3.05972       -1.40977       -2.24378
H          7.42080       -4.70145       -2.41988
H          8.03764       -3.04154       -2.76428
H          9.00322       -4.88920       -4.69302
H         12.20180       -3.19957       -3.22606
H         11.93500       -4.35422       -4.58581
H         10.88967       -6.86061       -1.69866
H          8.78646       -6.41687       -2.55859
H          7.43584       -4.79443       -5.91484
H         10.93504        0.64174       -3.53604
H          9.42996        0.36373       -4.37896
H         10.54494        1.57751       -4.95915
H         13.08941        0.01022       -4.57548
H         12.70071        0.89302       -6.03241
H         13.12612       -0.79925       -6.12354
H          9.48293       -0.78324       -6.67683
H         11.02345       -1.26188       -7.34821
H         10.59804        0.43039       -7.25708
