66
*****
C         14.18775        0.16800       -7.01850
Si        13.36228       -0.69625       -5.55374
C         12.87274       -2.47030       -6.16205
C         13.64396       -3.14343       -7.12535
C         13.27279       -4.41597       -7.56584
C         12.13649       -5.03467       -7.04901
C         11.36797       -4.38529       -6.08652
C         11.73086       -3.11225       -5.64344
C         14.58884       -1.03609       -4.16528
C         15.80042       -0.32285       -4.08464
C         16.71581       -0.57467       -3.05889
C         16.43864       -1.53863       -2.09420
C         15.24711       -2.25476       -2.15428
C         14.33117       -2.00959       -3.18064
N         11.89698        0.16916       -5.16439
C         11.48891        0.71211       -3.96222
C         12.14383        0.85646       -2.72162
C         11.46223        1.42833       -1.64879
C         10.15396        1.85802       -1.79474
C          9.49858        1.73825       -3.02714
Br         7.71569        2.37841       -3.09705
C         10.16136        1.16718       -4.14678
C          9.81833        0.91464       -5.52396
C          8.54709        1.19132       -6.27720
C          7.47639        0.07171       -6.19392
N          6.37521        0.31749       -7.13533
C          6.54089       -0.07523       -8.53744
C          7.29154       -1.37907       -8.74512
C          7.94917       -2.00085       -7.57962
C          8.02246       -1.31558       -6.43313
O          7.40733       -1.90322       -9.85126
C         10.92786        0.33999       -6.11374
C          5.39595        1.22128       -6.76305
O          4.57406        1.55134       -7.79369
C          3.49862        2.47116       -7.49821
C          2.13561        1.76723       -7.38465
Cl         2.09705        0.59098       -6.03930
Cl         0.85556        2.99465       -7.10558
Cl         1.75299        0.90221       -8.91108
O          5.28456        1.69084       -5.63967
H         15.08993       -0.34726       -7.27441
H         14.41733        1.17880       -6.75305
H         13.52321        0.16161       -7.85710
H         14.48999       -2.69450       -7.50968
H         13.84271       -4.89993       -8.27719
H         11.86457       -5.97379       -7.37938
H         10.52903       -4.84571       -5.70023
H         11.15730       -2.63684       -4.92927
H         16.01550        0.39609       -4.79309
H         17.59998       -0.04411       -3.01676
H         17.11486       -1.72182       -1.33645
H         15.03931       -2.96891       -1.43886
H         13.45272       -2.54994       -3.21774
H         13.12001        0.54115       -2.60903
H         11.93647        1.53240       -0.73814
H          9.65767        2.26986       -0.98907
H          8.79688        1.33524       -7.30763
H          8.11152        2.05508       -5.81992
H          7.11895        0.10696       -5.18601
H          7.07705        0.70217       -9.04051
H          5.55630       -0.22704       -8.92787
H          8.34682       -2.95070       -7.64803
H          8.49511       -1.77693       -5.64017
H         11.01156        0.08160       -7.10936
H          3.44479        3.19887       -8.28079
H          3.70978        2.92511       -6.55257
