56
*****
C         10.17544       -6.48948       -5.29089
Si         9.19976       -7.97653       -4.70663
C          9.82798       -9.50988       -5.60735
C          9.52693       -8.25103       -2.87281
N          7.48680       -7.80617       -4.98713
C          6.49124       -8.69440       -4.62668
C          6.54037       -9.96178       -4.00758
C          5.35077      -10.63388       -3.73245
C          4.12971      -10.06422       -4.05578
C          4.07036       -8.80739       -4.67316
Br         2.33534       -8.13092       -5.04350
C          5.26240       -8.09859       -4.98397
C          5.57726       -6.83642       -5.60734
C          4.64689       -5.79532       -6.16024
C          4.14900       -4.80799       -5.08112
N          5.23973       -3.87406       -4.69067
C          5.43832       -2.69775       -5.56204
C          4.16044       -1.95832       -5.86594
C          2.90672       -2.74135       -5.88407
C          2.93983       -4.03799       -5.55249
O          4.13106       -0.76720       -6.16544
C          6.95377       -6.71179       -5.60184
O          6.77233       -2.88933       -2.91170
S          5.58057       -3.70105       -3.04240
C          4.20811       -2.73791       -2.44520
C          3.09033       -3.38520       -1.90870
C          2.01957       -2.62734       -1.43530
C          2.07394       -1.23348       -1.48643
C          3.20226       -0.59146       -1.99948
C          4.27878       -1.34177       -2.47167
O          5.50233       -5.00326       -2.41614
H         11.21570       -6.64625       -5.09551
H          9.84210       -5.61678       -4.76919
H         10.02618       -6.35548       -6.34192
H         10.87890       -9.61775       -5.43755
H          9.64490       -9.40727       -6.65656
H          9.31656      -10.37453       -5.23893
H         10.57938       -8.35442       -2.70985
H          9.02704       -9.14050       -2.55056
H          9.16030       -7.41416       -2.31592
H          7.44801      -10.38658       -3.76109
H          5.37957      -11.56310       -3.28440
H          3.25631      -10.56986       -3.84010
H          3.79999       -6.28714       -6.59127
H          5.18973       -5.23086       -6.88935
H          3.85826       -5.37910       -4.22426
H          5.86765       -3.02743       -6.48502
H          6.07971       -2.02008       -5.03832
H          2.01570       -2.29337       -6.14943
H          2.05333       -4.56114       -5.62635
H          7.48869       -5.92258       -5.99685
H          3.05816       -4.41571       -1.86349
H          1.18678       -3.09720       -1.04708
H          1.27658       -0.67524       -1.14348
H          3.23984        0.43942       -2.02939
H          5.12072       -0.87036       -2.83766
