89
*****
Si         9.69342       -4.40756        5.01643
C         11.48356       -4.83741        4.50437
C         11.71643       -5.62518        3.19572
C         13.12426       -5.33002        2.66408
C         11.56209       -7.13632        3.37760
C          9.75030       -3.43824        6.69475
C          9.93117       -1.90733        6.64398
C          9.64579       -1.31709        8.02933
C         11.33395       -1.49005        6.19847
C          8.67603       -6.01452        5.34499
C          9.28881       -7.08632        6.27182
C          9.09682       -6.76084        7.75550
C          8.64317       -8.44603        5.97779
N          8.85796       -3.40385        3.85151
C          7.54392       -2.97636        3.91070
C          6.53480       -3.18862        4.87448
C          5.27155       -2.63898        4.67779
C          5.00520       -1.88169        3.55014
C          6.00504       -1.64282        2.59326
I          5.41815       -0.45129        0.96963
C          7.31111       -2.18629        2.76091
C          8.56431       -2.12964        2.04355
C          8.92042       -1.39511        0.78289
C          9.30774        0.07911        1.03682
N         10.63728        0.16413        1.70254
C         11.81636        0.09886        0.81407
C         11.73013        1.08713       -0.32157
C         10.38664        1.37326       -0.86878
C          9.31006        0.87786       -0.24535
O         12.71442        1.61307       -0.83304
C          9.48001       -2.87522        2.76159
S         10.76417        1.09240        3.11006
C         10.70965        2.76719        2.49422
C          9.47736        3.41927        2.37875
C          9.42000        4.73444        1.89406
C          8.08682        5.43544        1.76255
F          7.12562        4.62531        1.23843
F          7.60787        5.86823        2.95868
F          8.13311        6.52906        0.95352
C         10.62000        5.38830        1.56276
C         11.86605        4.74824        1.70312
C         13.13775        5.48884        1.35061
F         13.13268        5.94060        0.06695
F         13.32272        6.58751        2.13296
F         14.26343        4.73771        1.48508
C         11.90130        3.43031        2.18123
O          9.57549        0.89771        3.90996
O         12.08224        0.88876        3.67104
H         11.90728       -5.41562        5.29875
H         11.93365       -3.88516        4.31583
H         10.96850       -5.30482        2.50083
H         13.85104       -5.65965        3.37685
H         13.23217       -4.27737        2.50543
H         13.27186       -5.84711        1.73902
H         12.29820       -7.48932        4.06928
H         11.69541       -7.62449        2.43483
H         10.58472       -7.35205        3.75589
H         10.56473       -3.83565        7.26367
H          8.77636       -3.57730        7.11547
H          9.24120       -1.53094        5.91792
H         10.34798       -1.70864        8.73539
H          8.65310       -1.57881        8.33094
H          9.73706       -0.25176        7.98882
H         12.05392       -1.85030        6.90328
H         11.38889       -0.42273        6.14641
H         11.54016       -1.90526        5.23411
H          8.49905       -6.47792        4.39692
H          7.80590       -5.67642        5.86791
H         10.34023       -7.10893        6.07455
H          8.05145       -6.73164        7.98187
H          9.53524       -5.80897        7.97146
H          9.56960       -7.51442        8.35005
H          7.59434       -8.39473        6.18327
H          9.09160       -9.19505        6.59649
H          8.79312       -8.69696        4.94850
H          6.73242       -3.74756        5.71920
H          4.52893       -2.79691        5.37679
H          4.06136       -1.48822        3.41100
H          8.07755       -1.41838        0.12416
H          9.77193       -1.88259        0.35606
H          8.56953        0.50142        1.68614
H         11.88678       -0.88822        0.40711
H         12.68012        0.34285        1.39657
H         10.28006        1.94713       -1.71987
H          8.39330        1.05929       -0.68315
H         10.47250       -3.00935        2.51260
H          8.60917        2.93204        2.65055
H         10.58660        6.35736        1.20943
H         12.80638        2.94946        2.30223
