61
*****
C         12.76893       -2.86591        6.93641
C         12.27092       -4.26035        7.29234
Si        12.15737       -5.47707        5.81362
C         13.89882       -5.78710        5.12075
C         14.90837       -6.35842        6.10759
C         11.45425       -7.11130        6.52529
C         11.20491       -8.20423        5.49461
N         11.06528       -4.83074        4.61506
C          9.72824       -4.52366        4.78124
C          8.87750       -4.61594        5.90365
C          7.54117       -4.24217        5.78170
C          7.04761       -3.78635        4.57060
C          7.88365       -3.68657        3.44944
Br         7.06673       -3.05773        1.85614
C          9.25580       -4.05033        3.53605
C         10.38266       -4.06097        2.63449
C         10.47559       -3.63649        1.19636
C         11.09708       -2.23033        1.00935
N         11.41131       -1.95708       -0.39657
C         10.35292       -1.45747       -1.27682
C          9.43598       -0.43517       -0.62825
C          9.49597       -0.27317        0.83827
C         10.24329       -1.11676        1.55984
O          8.60857        0.20884       -1.27061
C         11.46372       -4.55508        3.34158
C         12.58383       -2.48792       -0.90489
O         12.70570       -2.30115       -2.24487
C         13.93354       -2.76211       -2.85332
C         14.93643       -1.62254       -3.10917
Cl        15.47605       -0.84106       -1.59441
Cl        16.37961       -2.28262       -3.94988
Cl        14.20104       -0.37104       -4.16511
O         13.42291       -3.06872       -0.22873
H         12.79870       -2.26174        7.81902
H         12.10681       -2.42213        6.22257
H         13.75118       -2.93409        6.51756
H         11.29512       -4.16577        7.72103
H         12.99090       -4.67369        7.96739
H         14.28106       -4.85436        4.76189
H         13.78249       -6.52930        4.35884
H         15.06885       -5.65728        6.89977
H         15.83358       -6.54498        5.60353
H         14.53196       -7.27440        6.51281
H         10.52496       -6.89113        7.00782
H         12.19820       -7.49255        7.19319
H         10.46404       -7.87405        4.79676
H         10.86046       -9.08859        5.98874
H         12.11502       -8.41799        4.97412
H          9.24225       -4.95730        6.80668
H          6.91466       -4.30533        6.59933
H          6.05434       -3.51740        4.49256
H          9.48982       -3.62975        0.78028
H         11.11840       -4.33441        0.70180
H         12.00320       -2.25098        1.57805
H          9.75839       -2.28917       -1.59257
H         10.83840       -0.96240       -2.09175
H          8.96734        0.48237        1.30167
H         10.23426       -0.99397        2.58447
H         12.41529       -4.69235        2.96649
H         13.69850       -3.22704       -3.78793
H         14.39247       -3.44874       -2.17302
