62
*****
C         11.94938        4.16241       -5.25019
Si        11.21776        2.41940       -5.39290
C         10.56419        2.27864       -7.20689
C         11.33905        2.75372       -8.28127
C         10.87230        2.65044       -9.59341
C          9.63274        2.07058       -9.85222
C          8.85791        1.58769       -8.80044
C          9.31815        1.68663       -7.48559
C         12.57420        1.11400       -5.29720
C         13.71040        1.32539       -4.49180
C         14.71975        0.36250       -4.40803
C         14.61498       -0.82581       -5.12516
C         13.50119       -1.05421       -5.92776
C         12.48912       -0.09479       -6.01469
N          9.88444        2.29411       -4.27264
C          9.65491        1.36008       -3.28147
C         10.38417        0.22402       -2.87213
C          9.90549       -0.56420       -1.82878
C          8.71701       -0.24443       -1.19796
C          7.98147        0.88200       -1.59082
Br         6.35919        1.16905       -0.65225
C          8.44477        1.72356       -2.64135
C          7.99025        2.94557       -3.26670
C          6.79743        3.81480       -2.95943
C          7.11098        5.13024       -2.19244
N          7.65457        4.93827       -0.84165
C          9.10701        4.78758       -0.67386
C          9.95731        5.57662       -1.65828
C          9.27508        6.32660       -2.73117
C          7.97796        6.09409       -2.96215
O         11.18523        5.60132       -1.59955
C          8.87603        3.21756       -4.29225
O          5.52750        4.67998       -0.02286
C          6.74599        4.63903        0.19047
C          7.31001        4.29605        1.59221
F          8.25408        3.31293        1.54833
F          7.91212        5.37342        2.17253
F          6.35787        3.87225        2.46733
H         12.76996        4.26152       -5.92969
H         12.29308        4.32416       -4.24988
H         11.19803        4.88537       -5.49044
H         12.25991        3.18202       -8.09796
H         11.44752        3.00481      -10.37352
H          9.28867        1.99877      -10.82252
H          7.94086        1.15544       -8.99330
H          8.73991        1.32272       -6.71213
H         13.79861        2.20319       -3.95636
H         15.54528        0.53302       -3.81268
H         15.36133       -1.53573       -5.06188
H         13.42255       -1.93473       -6.46023
H         11.66774       -0.27452       -6.61307
H         11.26852       -0.02182       -3.34385
H         10.44097       -1.39221       -1.52433
H          8.36863       -0.84064       -0.43103
H          6.11523        3.24174       -2.36688
H          6.39847        4.11346       -3.90628
H          6.14181        5.57023       -2.08278
H          9.34747        3.75092       -0.78526
H          9.33626        5.17726        0.29593
H          9.79113        7.02013       -3.29484
H          7.53351        6.61855       -3.73184
H          8.79001        3.99448       -4.96607
