73
*****
C          8.69085        6.52234        1.84580
Si         7.84558        4.85411        2.46514
C          9.26021        3.59838        2.27296
C          7.47123        5.20025        4.47359
C          6.12279        5.95252        4.63527
C          7.54625        3.95027        5.44676
C          6.53155        2.83484        5.19900
C          8.93086        3.30780        5.62859
C          8.55422        6.23020        4.95469
N          6.62820        4.49375        1.25413
C          5.29451        4.14500        1.33375
C          4.47920        3.76291        2.41043
C          3.12385        3.50677        2.21748
C          2.56694        3.61816        0.95852
C          3.36517        3.95681       -0.14074
Br         2.46132        4.05238       -1.80824
C          4.75940        4.20259        0.02164
C          5.86005        4.49307       -0.86017
C          5.88685        4.64551       -2.36141
C          6.08587        6.11424       -2.81544
N          6.43999        6.33634       -4.22674
C          6.89724        7.70019       -4.51257
C          5.80862        8.69321       -4.10638
C          4.78286        8.24104       -3.12414
C          4.92994        7.04893       -2.52290
O          5.81293        9.86755       -4.47023
C          6.98751        4.58334       -0.06835
O          5.16283        4.58868       -5.04735
C          5.83000        5.59460       -5.23572
O          6.04759        6.12651       -6.46640
C          5.41061        5.57819       -7.64993
C          3.88588        5.71116       -7.56252
C          5.91345        6.46024       -8.80319
C          5.84834        4.13368       -7.91355
H          9.45372        6.81368        2.53721
H          7.95260        7.29432        1.78309
H          9.12533        6.36509        0.88071
H         10.01656        3.79870        3.00284
H          9.68003        3.68137        1.29227
H          8.88017        2.60837        2.41563
H          5.32006        5.31614        4.32616
H          6.13180        6.83484        4.03002
H          5.98716        6.22504        5.66106
H          7.28406        4.44819        6.35683
H          6.77738        2.32418        4.29143
H          5.55138        3.25608        5.11700
H          6.55541        2.14324        6.01510
H          9.21139        2.80392        4.72731
H          8.89465        2.60434        6.43403
H          9.65034        4.06792        5.85101
H          8.53434        7.09133        4.31990
H          9.52233        5.77667        4.91032
H          8.34405        6.52452        5.96172
H          4.88773        3.67091        3.35366
H          2.53343        3.23268        3.01831
H          1.55706        3.45089        0.82738
H          4.95913        4.28853       -2.75738
H          6.71932        4.08107       -2.72653
H          6.93069        6.34748       -2.20161
H          7.09791        7.79800       -5.55903
H          7.79093        7.90196       -3.95984
H          3.96862        8.83725       -2.90835
H          4.22328        6.75634       -1.83004
H          7.95189        4.70016       -0.41669
H          3.62695        6.73286       -7.37822
H          3.51985        5.10075       -6.76357
H          3.44663        5.39267       -8.48476
H          5.61518        7.47368       -8.63332
H          5.49446        6.11490       -9.72520
H          6.98088        6.40637       -8.85417
H          5.50509        3.50612       -7.11779
H          6.91602        4.08883       -7.96797
H          5.42960        3.79736       -8.83899
