66
*****
C          4.04313        4.23559        8.58122
Si         3.41845        2.75305        7.58524
C          4.03264        1.17932        8.52105
C          3.96960        1.11375        9.92560
C          4.41367       -0.02345       10.60379
C          4.92375       -1.10774        9.89387
C          4.98818       -1.06009        8.50345
C          4.54509        0.07308        7.81791
C          1.53290        2.65729        7.67711
C          0.76553        3.81514        7.43842
C         -0.62999        3.77686        7.49910
C         -1.28499        2.58599        7.79874
C         -0.54628        1.43094        8.03747
C          0.84960        1.46374        7.97798
N          4.13039        2.77462        5.98982
C          3.56368        2.44465        4.77424
C          2.27109        1.98751        4.44234
C          1.95419        1.71638        3.11614
C          2.90467        1.87734        2.12548
C          4.20028        2.32398        2.43627
I          5.49718        2.42782        0.79492
C          4.55901        2.63485        3.78142
C          5.73525        3.13075        4.46764
C          7.08096        3.56762        3.94476
C          7.32574        5.10322        3.91879
N          6.49124        5.83699        2.96710
C          5.15934        6.28926        3.37748
C          5.05244        6.69839        4.83798
C          6.23265        6.51422        5.70849
C          7.25370        5.76791        5.27054
O          4.02042        7.15806        5.32483
C          5.43995        3.11878        5.81867
C          6.88357        5.84885        1.64214
O          5.96181        6.42549        0.82750
C          6.29939        6.49713       -0.57602
C          6.79099        7.89192       -1.00046
Cl         8.30209        8.36271       -0.16838
Cl         7.09456        7.89966       -2.77070
Cl         5.53819        9.12870       -0.64621
O          7.94411        5.38837        1.23909
H          3.60537        4.21941        9.55744
H          3.76884        5.14154        8.08230
H          5.10844        4.18420        8.66714
H          3.59207        1.91267       10.45872
H          4.36373       -0.06048       11.63391
H          5.25369       -1.94577       10.39773
H          5.36453       -1.86469        7.97809
H          4.59383        0.09949        6.78740
H          1.24094        4.70364        7.21572
H         -1.17648        4.63403        7.32124
H         -2.31567        2.55954        7.84378
H         -1.03093        0.54720        8.25918
H          1.38695        0.60107        8.15708
H          1.56316        1.85481        5.18143
H          1.00532        1.39357        2.87025
H          2.65971        1.66686        1.14531
H          7.18000        3.20156        2.94422
H          7.80325        3.16764        4.62535
H          8.33770        5.16207        3.57619
H          4.46749        5.49195        3.20266
H          4.94504        7.16462        2.80067
H          6.26889        6.95491        6.64096
H          8.05467        5.63704        5.90799
H          6.10480        3.33581        6.57755
H          5.43013        6.25180       -1.14969
H          7.09813        5.80697       -0.75093
