93
*****
Si         7.44416        2.87121        3.36598
C          8.24349        1.56484        4.52858
C          7.58622        0.35290        4.81702
C          8.17026       -0.60483        5.65062
C          9.42179       -0.37369        6.21161
C         10.09237        0.81380        5.93713
C          9.51246        1.77356        5.10232
C          8.52357        4.44751        3.57460
C          9.52978        4.74352        2.63165
C         10.34207        5.87111        2.77451
C         10.17792        6.71566        3.86740
C          9.20738        6.42882        4.82247
C          8.39173        5.30212        4.68257
C          5.47939        3.24469        4.02082
C          5.39127        3.08759        5.55453
C          5.02933        4.66487        3.62169
C          4.52774        2.22283        3.35280
N          7.35136        2.35022        1.69289
C          7.06921        3.12931        0.58305
C          6.84275        4.51558        0.44159
C          6.55852        5.04074       -0.81655
C          6.49854        4.21294       -1.92446
C          6.73399        2.83661       -1.80124
Br         6.62421        1.82900       -3.40582
C          7.03541        2.26424       -0.53418
C          7.35389        0.94463       -0.04633
C          7.48837       -0.35193       -0.79328
C          8.95441       -0.76491       -1.07546
N          9.02887       -2.07506       -1.72962
C          8.87847       -2.15272       -3.18419
C          9.57469       -1.03597       -3.94134
C         10.04313        0.13880       -3.17982
C          9.72799        0.24585       -1.88397
O          9.70202       -1.04785       -5.16440
C          7.54672        1.05196        1.31810
C          8.88739       -3.20088       -0.93301
O          8.76630       -4.33696       -1.66348
C          8.61899       -5.58484       -0.95048
C          7.22366       -6.16235       -1.22262
C          7.22016       -7.68678       -1.29234
C          7.91039       -8.50956       -2.17092
C          7.73676       -9.88993       -2.05585
C          6.87964      -10.42657       -1.08150
C          6.17642       -9.59150       -0.20767
C          6.34798       -8.22138       -0.32079
C          5.74531       -7.13314        0.41793
C          6.23453       -5.90787       -0.08740
C          5.80153       -4.69698        0.43062
C          4.87916       -4.71780        1.47898
C          4.39729       -5.93414        1.98838
C          4.82813       -7.15278        1.45643
O          8.84949       -3.16421        0.28976
H          6.65769        0.16905        4.40586
H          7.67153       -1.48595        5.85045
H          9.85125       -1.08034        6.82905
H         11.02158        0.98693        6.35139
H         10.02222        2.64856        4.90344
H          9.66819        4.11714        1.82324
H         11.06523        6.07782        2.06787
H         10.77378        7.55203        3.96961
H          9.08922        7.05056        5.63763
H          7.68263        5.09493        5.40317
H          6.04693        3.79127        6.02340
H          5.67947        2.09420        5.82845
H          4.38635        3.26842        5.87444
H          5.67746        5.38516        4.07559
H          4.02578        4.82790        3.95516
H          5.07253        4.76681        2.55744
H          4.82596        1.23045        3.61952
H          4.57309        2.33530        2.28969
H          3.52633        2.39640        3.68742
H          6.88754        5.13581        1.26521
H          6.39153        6.05349       -0.92361
H          6.27838        4.61293       -2.84996
H          6.97937       -0.25566       -1.72952
H          7.06539       -1.11348       -0.17197
H          9.41547       -0.81719       -0.11130
H          7.83460       -2.11572       -3.41624
H          9.33908       -3.06782       -3.49294
H         10.60724        0.86914       -3.64177
H         10.04290        1.09736       -1.39327
H          7.79771        0.27645        1.95103
H          8.73624       -5.41287        0.09908
H          9.36449       -6.27724       -1.28171
H          6.95171       -5.68417       -2.14038
H          8.53503       -8.11193       -2.88977
H          8.24389      -10.52299       -2.69388
H          6.76733      -11.44991       -1.00945
H          5.54387       -9.98691        0.50546
H          6.15176       -3.80339        0.05133
H          4.54774       -3.82840        1.88414
H          3.71715       -5.92838        2.76452
H          4.47131       -8.04675        1.82861
