76
*****
C         11.73178        4.82065       -5.30369
Si        11.24008        3.02930       -5.02056
C         10.94267        2.20471       -6.73360
C         11.72578        2.57438       -7.84497
C         11.51716        1.98446       -9.09386
C         10.52539        1.02105       -9.25533
C          9.73989        0.64562       -8.16882
C          9.94360        1.23155       -6.91683
C         12.70719        2.06819       -4.27042
C         13.11573        2.36967       -2.95470
C         14.18459        1.69298       -2.36251
C         14.86622        0.70785       -3.07058
C         14.47941        0.39701       -4.37125
C         13.40986        1.07007       -4.96877
N          9.79586        2.90475       -4.04354
C          9.37541        1.82483       -3.28761
C          9.89449        0.52044       -3.14071
C          9.27503       -0.36674       -2.26272
C          8.16177        0.02397       -1.53654
C          7.63332        1.31370       -1.68151
Br         6.11508        1.72762       -0.61920
C          8.22803        2.24149       -2.57920
C          7.95856        3.59897       -2.98443
C          6.87877        4.53064       -2.51477
C          7.26902        5.27061       -1.21549
N          8.31677        6.29014       -1.49925
C          7.83824        7.60798       -1.96532
C          6.77288        8.17815       -1.06347
C          5.83388        7.22160       -0.43989
C          6.07135        5.90882       -0.55432
O          6.62458        9.38175       -0.87319
C          8.92319        3.94730       -3.91021
S          9.74288        6.24357       -0.59479
C          9.23707        6.91330        0.98002
C          8.76416        6.05260        1.97613
C          8.35572        6.56826        3.21532
C          7.83776        5.63848        4.28939
F          6.99511        4.69131        3.79194
F          8.83712        4.96517        4.91821
F          7.14013        6.28167        5.26518
C          8.46300        7.95173        3.44345
C          8.96296        8.82055        2.45509
C          9.07877       10.30198        2.74163
F          7.89700       10.84477        3.14246
F          9.96712       10.56073        3.74013
F          9.49061       11.03481        1.67256
C          9.35894        8.28635        1.22034
O         10.11484        4.86358       -0.37328
O         10.68021        7.17841       -1.17846
H         12.61699        4.85696       -5.90368
H         11.91978        5.29206       -4.36171
H         10.93856        5.33297       -5.80691
H         12.46198        3.28919       -7.73508
H         12.09966        2.26352       -9.89875
H         10.37268        0.58597      -10.17859
H          9.00431       -0.06823       -8.28865
H          9.35497        0.94741       -6.11821
H         12.61813        3.10027       -2.42211
H         14.46939        1.92409       -1.39788
H         15.65640        0.20900       -2.63263
H         14.98454       -0.33359       -4.89668
H         13.13259        0.83169       -5.93382
H         10.72488        0.22663       -3.67844
H          9.64851       -1.32246       -2.15252
H          7.71794       -0.64039       -0.88334
H          5.98932        3.96386       -2.33439
H          6.72507        5.26547       -3.27720
H          7.66305        4.54723       -0.53259
H          7.43424        7.49939       -2.95015
H          8.66996        8.28110       -1.95785
H          5.00713        7.56084        0.07626
H          5.36704        5.27123       -0.15127
H          8.97571        4.84508       -4.41642
H          8.71565        5.03702        1.79928
H          8.16915        8.33803        4.35419
H          9.74036        8.90619        0.48867
