70
*****
C          6.61212       -4.39473       -7.48005
Si         5.87756       -5.82800       -6.48619
C          4.15644       -6.27763       -7.13612
C          3.45734       -7.37938       -6.60685
C          2.18507       -7.71395       -7.07706
C          1.58871       -6.95686       -8.08127
C          2.26394       -5.86504       -8.61915
C          3.53756       -5.52716       -8.15375
C          6.90891       -7.40110       -6.84595
C          7.04400       -8.41681       -5.88001
C          7.80068       -9.56040       -6.14604
C          8.42370       -9.71533       -7.38114
C          8.28923       -8.72879       -8.35417
C          7.53708       -7.58073       -8.09229
N          5.94468       -5.34756       -4.80681
C          4.97046       -4.70878       -4.06188
C          3.65029       -4.32803       -4.38434
C          2.86945       -3.67994       -3.43289
C          3.38577       -3.39345       -2.18195
C          4.70137       -3.75454       -1.84685
I          5.30816       -3.17276        0.07466
C          5.52731       -4.43761       -2.78718
C          6.87453       -4.96359       -2.80890
C          7.93540       -4.99599       -1.74408
C          8.05566       -6.36540       -1.03285
N          9.33141       -6.40442       -0.24629
C          9.23618       -5.71675        1.07070
C          8.06264       -6.16902        1.90551
C          6.86502       -6.65838        1.18824
C          6.88014       -6.70297       -0.15058
O          8.03372       -6.05325        3.12867
C          7.09078       -5.47231       -4.07610
O         10.13401       -8.44496       -1.57061
S         10.08694       -7.93592       -0.21634
C         11.75620       -7.53813        0.24126
C         12.24795       -7.90313        1.49754
C         13.56492       -7.58893        1.83285
C         14.38207       -6.92604        0.91453
C         13.88874       -6.57602       -0.34385
C         12.57264       -6.88330       -0.68635
O          9.48564       -8.70258        0.85267
H          6.59533       -4.63766       -8.52197
H          7.62202       -4.22595       -7.16939
H          6.03431       -3.51022       -7.31069
H          3.89048       -7.94715       -5.86184
H          1.68603       -8.52470       -6.67873
H          0.64811       -7.20446       -8.42623
H          1.82266       -5.30329       -9.36395
H          4.03063       -4.71729       -8.56120
H          6.57841       -8.31507       -4.96464
H          7.89808      -10.29232       -5.42505
H          8.98419      -10.55986       -7.57515
H          8.74655       -8.84580       -9.27188
H          7.44115       -6.85638       -8.82109
H          3.26634       -4.52933       -5.32087
H          1.89959       -3.41138       -3.66154
H          2.79738       -2.90858       -1.48645
H          7.70161       -4.25290       -1.01055
H          8.87167       -4.80933       -2.22726
H          8.06304       -7.11294       -1.79838
H          9.14243       -4.66509        0.89710
H         10.12283       -5.96173        1.61727
H          6.02911       -6.96134        1.71215
H          6.00885       -6.99461       -0.62051
H          7.97598       -5.88052       -4.41491
H         11.64300       -8.39990        2.17007
H         13.93597       -7.84664        2.76072
H         15.35531       -6.69378        1.16730
H         14.49808       -6.09000       -1.02025
H         12.20412       -6.62972       -1.61636
