85
*****
Si         7.12247        2.31285        3.63262
C          5.82526        1.78435        4.94695
C          5.74134        2.42381        6.19709
C          4.81046        2.01070        7.15418
C          3.95386        0.94741        6.88535
C          4.03107        0.28999        5.66159
C          4.96119        0.69858        4.70236
C          8.82276        1.73529        4.33332
C          8.91809        0.87133        5.43906
C         10.16440        0.45070        5.91320
C         11.33439        0.87631        5.28978
C         11.26193        1.72111        4.18722
C         10.01960        2.14533        3.71095
C          7.14062        4.40347        3.47079
C          8.08046        5.00609        4.54065
C          7.66293        4.79341        2.06780
C          5.72953        4.99523        3.66156
N          6.78826        1.59640        2.06850
C          5.66137        1.75030        1.28136
C          4.40923        2.34541        1.53566
C          3.47452        2.43401        0.50549
C          3.76903        1.94399       -0.75721
C          4.99560        1.31518       -1.00887
Br         5.28806        0.69807       -2.77992
C          5.95795        1.17486        0.02608
C          7.24181        0.53630        0.15616
C          8.01691       -0.27260       -0.84249
C          9.03097        0.57295       -1.64419
N         10.11063        1.07641       -0.75094
C         11.19241        0.11927       -0.43723
C         11.78467       -0.48896       -1.68538
C         10.87874       -0.69673       -2.83751
C          9.62685       -0.22378       -2.77951
O         12.95500       -0.85135       -1.76607
C          7.68629        0.78241        1.44020
S         10.49913        2.71790       -0.80319
C         11.47395        2.84944       -2.29204
C         10.84262        3.12299       -3.50957
C         11.59801        3.20712       -4.68902
C         10.91691        3.49436       -6.00806
F          9.73534        2.82956       -6.13747
F         10.63021        4.81337       -6.16699
F         11.66557        3.13523       -7.08657
C         12.99325        3.04547       -4.61543
C         13.63833        2.79782       -3.38923
C         15.14207        2.63264       -3.34741
F         15.79093        3.74122       -3.79854
F         15.63084        2.39267       -2.10101
F         15.57041        1.60470       -4.12912
C         12.86490        2.71039       -2.22284
O          9.28897        3.48094       -1.01438
O         11.37565        3.01166        0.31038
H          6.37608        3.20904        6.41050
H          4.75812        2.49589        8.06350
H          3.26357        0.64750        7.59144
H          3.39969       -0.50151        5.46186
H          5.01612        0.19787        3.80164
H          8.05795        0.54397        5.90599
H         10.21737       -0.17850        6.72949
H         12.25241        0.56595        5.64466
H         12.12729        2.03481        3.72055
H          9.97686        2.76918        2.88997
H          9.06415        4.60303        4.41904
H          7.71332        4.76268        5.51578
H          8.11424        6.06955        4.42746
H          8.64248        4.38681        1.92619
H          7.70404        5.85949        1.98613
H          7.00353        4.40363        1.32070
H          5.35970        4.73050        4.63008
H          5.07462        4.60498        2.91077
H          5.77512        6.06085        3.57620
H          4.18688        2.71162        2.47453
H          2.55550        2.86808        0.68437
H          3.07916        2.04311       -1.51830
H          7.32781       -0.71979       -1.52810
H          8.57159       -1.00827       -0.29842
H          8.50618        1.40774       -2.05967
H         10.79506       -0.66374        0.17425
H         11.96818        0.65092        0.07309
H         11.20796       -1.20031       -3.67599
H          9.01323       -0.42235       -3.58515
H          8.55481        0.41181        1.85656
H          9.82064        3.26305       -3.54056
H         13.55563        3.10977       -5.47834
H         13.32170        2.54337       -1.31264
