57
*****
C         12.97418        5.97066       -6.27528
C         12.42681        7.27097       -5.70213
Si        12.42386        7.37071       -3.78944
C         14.21281        7.33157       -3.14975
C         15.12286        8.43603       -3.67048
C         11.63013        9.05787       -3.34336
C         11.41936        9.29235       -1.85343
N         11.45502        6.07491       -3.13292
C         10.11740        5.82739       -3.36875
C          9.17879        6.49561       -4.18370
C          7.87730        6.01324       -4.26685
C          7.50897        4.87543       -3.57097
C          8.43168        4.19883       -2.75463
I          7.69862        2.44165       -1.87666
C          9.76498        4.68287       -2.61333
C         10.94456        4.31346       -1.85917
C         11.15665        3.23722       -0.82801
C         10.99632        3.69064        0.65221
N         11.93936        4.73889        1.07789
C         11.53332        6.15086        1.01471
C         10.04994        6.43492        1.16560
C          9.12668        5.29234        1.26196
C          9.58737        4.05982        1.02625
O          9.60268        7.57914        1.21253
C         11.96550        5.15082       -2.27396
O         13.61841        3.17596        1.18442
C         13.28637        4.36602        1.25155
C         14.32669        5.47919        1.53192
F         14.11134        6.09502        2.72807
F         15.60825        5.02231        1.55924
F         14.29398        6.46092        0.58473
H         12.93584        6.00788       -7.34395
H         12.38326        5.15005       -5.92555
H         13.98806        5.84038       -5.95908
H         11.41896        7.38606       -6.04255
H         13.07988        8.04733       -6.04220
H         14.64193        6.39223       -3.42976
H         14.14845        7.48010       -2.09206
H         15.22782        8.34128       -4.73109
H         16.08430        8.35360       -3.20815
H         14.69589        9.38922       -3.43806
H         10.67746        9.11548       -3.82711
H         12.31740        9.80944       -3.67156
H         10.73571        8.56352       -1.47089
H         11.01862       10.27251       -1.69981
H         12.35565        9.20576       -1.34279
H          9.45638        7.33621       -4.71413
H          7.18304        6.50601       -4.85012
H          6.54396        4.51885       -3.65241
H         12.14797        2.85352       -0.95029
H         10.39032        2.51018       -0.99850
H         11.25301        2.80808        1.20003
H         11.84358        6.53648        0.06606
H         11.99889        6.61802        1.85727
H          8.13567        5.44112        1.50853
H          8.90976        3.28586        1.10907
H         12.95256        5.08522       -1.97996
