97
*****
Si         9.84261       -3.73383        5.77119
C         11.64455       -4.37046        5.39485
C         12.73464       -3.31106        5.12700
C         13.49672       -2.95343        6.40717
C         13.72753       -3.83272        4.08424
C         10.00701       -2.15398        6.85819
C          8.75290       -1.32845        7.20240
C          8.01364       -1.87271        8.42668
C          9.15707        0.12545        7.48138
C          8.89673       -5.11963        6.69413
C          9.65854       -6.02482        7.68286
C         10.13345       -5.27878        8.93116
C          8.75306       -7.18857        8.10537
N          9.02067       -3.31617        4.27622
C          7.65650       -3.25721        4.05066
C          6.55124       -3.37068        4.92101
C          5.25871       -3.31071        4.40541
C          5.05375       -3.15122        3.04600
C          6.14094       -3.02484        2.17036
Br         5.70691       -2.84460        0.33169
C          7.47515       -3.05151        2.66352
C          8.79107       -2.90470        2.09145
C          9.20092       -2.63340        0.67127
C          9.50789       -1.14333        0.37618
N          9.99970       -0.95831       -0.99126
C          9.02737       -0.90384       -2.08564
C          7.80086       -0.06809       -1.76117
C          7.56213        0.30574       -0.35100
C          8.33925       -0.21794        0.60477
O          6.97281        0.25119       -2.61282
C          9.69964       -3.06387        3.12094
C         11.33436       -1.23888       -1.23682
O         11.59998       -1.32924       -2.56326
C         12.89843       -1.81571       -2.94991
C         12.88778       -3.32776       -3.22530
C         11.70715       -3.78638       -4.07720
C         11.32686       -3.34797       -5.33637
C         10.19216       -3.91891       -5.91621
C          9.46158       -4.91146       -5.24207
C          9.85289       -5.35296       -3.97468
C         10.97745       -4.78716       -3.39736
C         11.60767       -5.04439       -2.12023
C         12.73257       -4.20226       -1.98714
C         13.54427       -4.25864       -0.86470
C         13.21061       -5.16271        0.14484
C         12.08441       -5.99221        0.02372
C         11.27515       -5.93815       -1.11517
O         12.17080       -1.40390       -0.35782
H         11.58839       -4.99792        4.52995
H         11.95446       -4.85792        6.29554
H         12.24717       -2.43084        4.76301
H         13.99023       -3.82496        6.78372
H         12.80932       -2.58770        7.14108
H         14.22281       -2.19789        6.19074
H         14.20864       -4.71214        4.45848
H         14.46281       -3.08142        3.88470
H         13.20487       -4.06906        3.18099
H         10.68085       -1.49657        6.34961
H         10.32047       -2.53678        7.80693
H          8.09395       -1.39032        6.36166
H          8.65414       -1.82097        9.28223
H          7.73430       -2.89060        8.25129
H          7.13554       -1.28712        8.60258
H          9.81441        0.15729        8.32506
H          8.28209        0.70533        7.68888
H          9.65651        0.52745        6.62473
H          8.47393       -5.75924        5.94778
H          8.21019       -4.58563        7.31737
H         10.53072       -6.38096        7.17556
H          9.28616       -4.90583        9.46773
H         10.76012       -4.46135        8.64132
H         10.68625       -5.94734        9.55753
H          7.89063       -6.80473        8.60914
H          9.29102       -7.83820        8.76376
H          8.44587       -7.73458        7.23796
H          6.69999       -3.49745        5.93434
H          4.44902       -3.38564        5.04088
H          4.09163       -3.12511        2.67361
H          8.40687       -2.94722        0.02637
H         10.10811       -3.17511        0.50257
H         10.26787       -0.87907        1.08152
H          8.70943       -1.90125       -2.30696
H          9.51423       -0.44072       -2.91834
H          6.80500        0.96292       -0.10626
H          8.11997        0.03299        1.58149
H         10.72574       -3.00180        3.02993
H         13.59231       -1.61307       -2.16101
H         13.18292       -1.31713       -3.85289
H         13.83903       -3.44763       -3.70032
H         11.86686       -2.62067       -5.83079
H          9.88646       -3.60788       -6.85153
H          8.62537       -5.31991       -5.68809
H          9.31641       -6.08330       -3.48090
H         14.37238       -3.64893       -0.77802
H         13.79889       -5.22220        0.99066
H         11.85115       -6.64961        0.78427
H         10.44899       -6.55002       -1.20508
