66
*****
Si         9.95621       -4.18724        5.21625
C         10.61230       -2.60663        6.19678
C         11.82588       -2.87740        7.09377
C         10.93244       -1.42236        5.27082
C          8.81145       -5.24356        6.46974
C          8.40808       -6.59534        5.86580
C          9.39997       -5.42272        7.86936
C         11.41502       -5.27970        4.52378
C         12.41090       -4.48328        3.66607
C         12.18731       -6.08397        5.57565
N          8.85903       -3.67713        3.93291
C          7.76453       -2.84169        4.05957
C          7.21207       -2.17181        5.17272
C          6.07659       -1.38178        5.00343
C          5.48486       -1.25967        3.75718
C          6.01945       -1.92614        2.64657
Br         5.08393       -1.71349        1.00760
C          7.18534       -2.73027        2.77733
C          7.98269       -3.53593        1.87894
C          7.75697       -3.73956        0.40213
C          8.93131       -4.34186       -0.40839
N          8.50709       -4.73832       -1.76289
C          8.41954       -3.70134       -2.79980
C          9.53757       -2.67227       -2.75702
C         10.41322       -2.64122       -1.56988
C         10.10642       -3.39988       -0.51149
O          9.69925       -1.83903       -3.64570
C          8.96145       -4.13494        2.65050
O          7.79202       -6.75726       -0.93449
C          7.86255       -5.98484       -1.89835
C          7.26208       -6.35813       -3.27661
F          8.21909       -6.45356       -4.24226
F          6.59982       -7.54655       -3.27227
F          6.36927       -5.42423       -3.71396
H          9.78957       -2.35078        6.83126
H         12.66764       -3.13675        6.48626
H         11.60415       -3.68515        7.75956
H         12.05279       -1.99927        7.66150
H         11.75515       -1.67802        4.63626
H         11.18934       -0.56754        5.86090
H         10.07570       -1.19707        4.67071
H          7.93198       -4.64879        6.60273
H          9.28067       -7.19914        5.72825
H          7.93203       -6.43600        4.92087
H          7.73029       -7.09345        6.52715
H         10.28994       -6.01367        7.80909
H          8.68630       -5.91562        8.49596
H          9.63556       -4.46426        8.28259
H         10.90005       -5.98644        3.90716
H         12.92633       -3.77626        4.28199
H         11.88172       -3.96475        2.89407
H         13.11803       -5.15432        3.22498
H         12.71974       -5.41334        6.21727
H         12.88072       -6.73644        5.08742
H         11.50057       -6.66353        6.15650
H          7.64565       -2.26641        6.10443
H          5.67366       -0.88403        5.81270
H          4.64324       -0.67294        3.64559
H          7.52518       -2.78593       -0.02421
H          6.97181       -4.46352        0.33659
H          9.24372       -5.21012        0.13331
H          7.48809       -3.18818       -2.68166
H          8.50362       -4.20361       -3.74084
H         11.25272       -2.04116       -1.55613
H         10.72948       -3.33528        0.30866
H          9.65711       -4.81784        2.31177
