56
*****
C         -1.54632       -6.05497        7.60862
Si        -0.25897       -5.42123        8.82772
C         -0.60041       -3.61996        9.20522
C         -0.47005       -6.42465       10.41178
N          1.34678       -5.68228        8.19800
C          1.88113       -6.87262        7.74316
C          1.35470       -8.18198        7.71746
C          2.10682       -9.21091        7.15879
C          3.35603       -8.95243        6.62063
C          3.89420       -7.65492        6.64325
I          5.77489       -7.45453        5.73788
C          3.16702       -6.58088        7.23192
C          3.39279       -5.17267        7.47178
C          4.58938       -4.31994        7.15659
C          4.48174       -3.62478        5.77984
N          3.59409       -2.43253        5.87256
C          4.22012       -1.18903        6.37063
C          5.51951       -0.85692        5.68295
C          6.32314       -1.98287        5.16316
C          5.83784       -3.22751        5.24879
O          5.96187        0.28637        5.60274
C          2.25466       -4.67426        8.07852
O          1.52673       -1.15157        5.11840
S          2.34470       -2.28482        4.74064
C          3.20179       -1.85120        3.24251
C          3.56096       -2.85422        2.33644
C          4.22563       -2.51054        1.15954
C          4.51693       -1.17294        0.88696
C          4.13438       -0.17280        1.78237
C          3.46483       -0.50741        2.95912
O          1.74995       -3.58884        4.54081
H         -2.52587       -5.88925        8.00601
H         -1.39943       -7.10248        7.44719
H         -1.44525       -5.53334        6.67986
H         -1.59479       -3.51781        9.58688
H         -0.50104       -3.04281        8.30972
H          0.09942       -3.26958        9.93486
H         -1.45339       -6.26933       10.80399
H          0.25530       -6.10990       11.13269
H         -0.33177       -7.46369       10.19691
H          0.41981       -8.37466        8.10971
H          1.73133      -10.17209        7.14553
H          3.89827       -9.72202        6.19786
H          5.46158       -4.93974        7.15968
H          4.64513       -3.55390        7.90156
H          4.05669       -4.32658        5.09304
H          4.40923       -1.30025        7.41790
H          3.54025       -0.38864        6.16557
H          7.24817       -1.81157        4.73888
H          6.45060       -3.98987        4.91962
H          2.11616       -3.69996        8.38929
H          3.33585       -3.84116        2.53721
H          4.50221       -3.24548        0.48992
H          5.01722       -0.92239        0.01981
H          4.34719        0.81516        1.57342
H          3.16593        0.23079        3.61544
