70
*****
Si        10.07394       -3.93047        4.96746
C         10.29263       -2.74372        6.52789
C         11.46328       -3.11571        7.44562
C         10.41541       -1.26397        6.13237
C          9.08585       -5.55744        5.59407
C          8.99590       -6.62264        4.49336
C          9.60952       -6.15719        6.89917
C         11.78220       -4.41613        4.16828
C         12.67346       -3.20594        3.84719
C         12.60161       -5.44601        4.95449
N          8.99501       -3.17038        3.79769
C          7.69989       -2.73517        4.01890
C          6.91924       -2.66774        5.19332
C          5.60529       -2.21200        5.11887
C          5.05933       -1.84383        3.90100
C          5.82434       -1.90352        2.72758
Br         4.92403       -1.43490        1.12451
C          7.18081       -2.32873        2.76805
C          8.25251       -2.46289        1.81247
C          8.30685       -2.11501        0.35106
C          8.87503       -0.69981        0.08437
N          9.38963       -0.56544       -1.28238
C          8.42138       -0.41568       -2.37111
C          7.36353        0.62957       -2.05363
C          7.19489        1.04644       -0.64265
C          7.87776        0.40750        0.31698
O          6.59625        1.07198       -2.90634
C          9.33030       -3.00602        2.48775
C         10.75039       -0.66739       -1.49100
O         11.09262       -0.53438       -2.79880
C         12.50609       -0.55762       -3.10124
C         12.98890       -1.91580       -3.63885
Cl        12.80658       -3.22891       -2.43944
Cl        12.07068       -2.36344       -5.11526
Cl        14.72584       -1.79092       -4.08027
O         11.57115       -0.84643       -0.60099
H          9.38946       -2.89016        7.08263
H         12.38545       -2.98024        6.92012
H         11.37047       -4.13870        7.74525
H         11.45084       -2.48780        8.31191
H         11.31842       -1.11682        5.57756
H         10.43654       -0.65944        7.01497
H          9.57675       -0.98525        5.52915
H          8.09936       -5.20872        5.81799
H          9.97764       -6.97909        4.26091
H          8.55537       -6.19412        3.61747
H          8.39198       -7.43754        4.83413
H         10.60128       -6.52932        6.74802
H          8.97044       -6.95906        7.20491
H          9.62337       -5.40296        7.65802
H         11.47871       -4.88304        3.25461
H         12.97906       -2.73622        4.75871
H         12.12432       -2.50645        3.25216
H         13.53749       -3.53260        3.30716
H         12.92452       -5.01440        5.87879
H         13.45556       -5.73678        4.37905
H         11.99668       -6.30567        5.15435
H          7.31937       -2.95411        6.10046
H          5.03515       -2.14835        5.97673
H          4.07970       -1.52231        3.85649
H          7.31525       -2.16459       -0.04789
H          8.96363       -2.81641       -0.11966
H          9.66905       -0.59626        0.79410
H          7.93886       -1.35637       -2.53598
H          8.95188       -0.09443       -3.24304
H          6.55772        1.82140       -0.40086
H          7.70776        0.69610        1.29311
H         10.24122       -3.24769        2.06723
H         13.04890       -0.33357       -2.20678
H         12.67886        0.16762       -3.86875
