74
*****
C          4.14687      -12.30366        0.53576
Si         5.44656      -11.02885        1.01444
C          5.46983      -10.75780        2.86138
C          7.33811      -11.91011        0.42643
C          8.46947      -10.99961        0.95215
C          7.41997      -13.39402        0.96163
C          8.47993      -14.23416        0.22767
C          7.70358      -13.51230        2.46548
C          7.33611      -11.86103       -1.12764
N          5.28901       -9.54891        0.09747
C          5.81566       -8.30496        0.39002
C          6.60959       -7.84403        1.46154
C          7.01749       -6.51148        1.49006
C          6.65423       -5.64271        0.47442
C          5.87110       -6.08941       -0.59795
Br         5.45721       -4.80256       -1.93177
C          5.43022       -7.43955       -0.65818
C          4.64292       -8.22237       -1.57791
C          4.00129       -7.80659       -2.87007
C          4.97258       -7.85355       -4.07085
N          5.32013       -9.25998       -4.40965
C          4.33973       -9.99238       -5.23727
C          3.91971       -9.22479       -6.46572
C          3.92728       -7.74789       -6.38393
C          4.38595       -7.15579       -5.27391
O          3.51802       -9.76901       -7.49101
C          4.57488       -9.50335       -1.06521
S          6.95574       -9.65022       -4.59551
C          7.36519       -8.94180       -6.17838
C          7.88994       -7.64803       -6.24207
C          8.22061       -7.09946       -7.48275
C          8.03770       -7.83907       -8.66369
C          8.41766       -7.24618      -10.00069
F          8.17220       -5.90781      -10.07281
F          9.74092       -7.40010      -10.27803
F          7.74611       -7.80284      -11.04642
C          7.54165       -9.15042       -8.57709
C          7.21221       -9.70527       -7.33880
O          7.72053       -8.93579       -3.59665
O          7.06439      -11.08780       -4.72586
H          4.28295      -13.18888        1.12122
H          4.24776      -12.54346       -0.50213
H          3.17114      -11.90326        0.71610
H          5.56790      -11.69999        3.35893
H          4.55765      -10.28768        3.16439
H          6.29727      -10.13037        3.11939
H          8.48028      -11.02565        2.02178
H          8.30220       -9.99583        0.62149
H          9.40973      -11.34657        0.57741
H          6.43831      -13.77199        0.76575
H          9.45320      -13.84122        0.43566
H          8.29785      -14.19663       -0.82606
H          8.42578      -15.24879        0.56306
H          8.68363      -13.13701        2.67420
H          7.64477      -14.53934        2.75983
H          6.98005      -12.94301        3.01075
H          7.27993      -10.84301       -1.45225
H          6.49120      -12.40142       -1.50046
H          8.23583      -12.30488       -1.49965
H          6.88619       -8.48868        2.21847
H          7.59476       -6.16951        2.27418
H          6.96288       -4.65852        0.50783
H          3.63902       -6.80540       -2.76388
H          3.21077       -8.49900       -3.07145
H          5.86629       -7.33737       -3.78846
H          3.47128      -10.18914       -4.64399
H          4.80900      -10.89550       -5.56753
H          3.58282       -7.17997       -7.17377
H          4.33342       -6.12577       -5.23756
H          4.06794      -10.29512       -1.49081
H          8.03204       -7.10189       -5.37803
H          8.60281       -6.14216       -7.53303
H          7.41959       -9.70876       -9.43638
H          6.85807      -10.67287       -7.28094
