67
*****
Si        10.20927       -4.38608        4.96190
C          8.74615       -5.40718        5.86947
C          8.18705       -6.51639        4.96853
C          9.11560       -5.95455        7.24819
C         11.51553       -5.60438        4.18184
C         12.73363       -4.87986        3.58749
C         11.99948       -6.72673        5.10674
C         11.01653       -3.18152        6.29759
C         12.03729       -3.85546        7.22197
C         11.66530       -1.93983        5.66403
N          9.38431       -3.43718        3.72828
C          8.48454       -2.40603        3.93366
C          7.92208       -1.86496        5.10982
C          7.06537       -0.76954        5.01766
C          6.77078       -0.20881        3.78557
C          7.31551       -0.74418        2.61076
Br         6.85008        0.12920        0.99051
C          8.17500       -1.87475        2.66295
C          8.86862       -2.68508        1.69372
C          8.89816       -2.55835        0.19864
C         10.00161       -1.59382       -0.29171
N         11.34142       -2.23066       -0.16238
C         11.76535       -3.13251       -1.25701
C         11.48649       -2.60930       -2.64246
C         10.43210       -1.58644       -2.79465
C          9.76369       -1.16381       -1.71539
O         12.05527       -3.03582       -3.64396
C          9.55999       -3.65479        2.39402
O         13.66171       -2.29021        0.84397
S         12.54927       -1.36927        0.67936
C         13.03396        0.01389       -0.47766
F         13.43358       -0.46586       -1.68974
F         11.99024        0.85763       -0.72189
F         14.05407        0.77031        0.01057
O         11.91551       -0.81553        1.86340
H          7.97648       -4.68487        6.04489
H          8.94869       -7.24541        4.78597
H          7.86770       -6.09373        4.03887
H          7.35490       -6.98348        5.45253
H          9.88720       -6.68870        7.14543
H          8.25382       -6.40320        7.69647
H          9.46437       -5.15487        7.86769
H         10.95725       -6.06847        3.39580
H         13.29147       -4.41601        4.37397
H         12.40230       -4.13291        2.89671
H         13.35519       -5.58625        3.07800
H         12.56548       -6.30643        5.91166
H         12.61549       -7.40431        4.55327
H         11.15534       -7.25295        5.50096
H         10.18180       -2.88247        6.89651
H         12.88613       -4.16637        6.64952
H         11.58880       -4.70846        7.68690
H         12.34932       -3.16189        7.97463
H         12.49987       -2.23972        5.06532
H         11.99949       -1.27879        6.43619
H         10.94801       -1.43688        5.04966
H          8.14327       -2.27687        6.02983
H          6.64724       -0.37306        5.87382
H          6.14491        0.61004        3.73254
H          7.94942       -2.19164       -0.13349
H          9.10917       -3.52630       -0.20565
H          9.96996       -0.72017        0.32525
H         11.25017       -4.06318       -1.14147
H         12.82796       -3.22914       -1.17683
H         10.21257       -1.20062       -3.72630
H          9.01120       -0.47561       -1.87404
H         10.11669       -4.41694        1.97661
