72
*****
Si         8.96612       -0.91695        7.52995
C          8.69580       -2.81293        7.76717
C          9.18348       -3.49298        8.89927
C          8.96670       -4.86325        9.06609
C          8.25527       -5.57973        8.10941
C          7.76092       -4.92736        6.98395
C          7.97677       -3.55697        6.81186
C         10.87448       -0.64766        7.46077
C         11.80773       -1.69008        7.59650
C         13.18088       -1.43698        7.52177
C         13.64688       -0.14389        7.30315
C         12.74090        0.90046        7.15255
C         11.36830        0.65311        7.22767
C          8.23253        0.06046        9.20964
C          9.23184       -0.08247       10.38342
C          8.06934        1.56941        8.91789
C          6.88141       -0.55225        9.63645
N          8.21083       -0.38986        6.03257
C          8.77323       -0.44748        4.76807
C          9.95508       -1.05155        4.28750
C         10.32463       -0.87055        2.95649
C          9.54544       -0.09975        2.11012
C          8.35426        0.47863        2.56882
Br         7.39725        1.53676        1.31525
C          7.92404        0.28157        3.91058
C          6.75071        0.63764        4.67997
C          5.53820        1.37727        4.17498
C          4.21874        1.22592        4.96706
N          4.25216        1.92563        6.29941
C          4.14015        3.40673        6.19015
C          2.98535        3.87611        5.33841
C          2.48305        2.95594        4.29509
C          3.07047        1.76180        4.13968
O          2.51335        5.00648        5.43175
C          6.95961        0.15607        5.95838
O          3.57068       -0.21436        7.48937
S          3.22186        1.19717        7.48507
C          3.72071        1.96455        9.11723
F          5.07257        2.10015        9.21817
F          3.19443        3.21193        9.27533
F          3.31248        1.22294       10.18314
O          1.86809        1.59016        7.13735
H          9.70954       -2.97105        9.61751
H          9.33532       -5.34484        9.90109
H          8.09459       -6.59152        8.23378
H          7.23272       -5.45751        6.27334
H          7.60424       -3.08423        5.97355
H         11.47521       -2.65438        7.75328
H         13.85241       -2.21319        7.62931
H         14.66124        0.03935        7.25297
H         13.08325        1.85950        6.98506
H         10.70455        1.43464        7.11075
H         10.17463        0.33834       10.10243
H          9.35961       -1.11838       10.61893
H          8.85194        0.43385       11.24016
H          9.01266        1.97985        8.62366
H          7.72286        2.06764        9.79915
H          7.35950        1.70540        8.12888
H          7.00982       -1.59583        9.83483
H          6.16728       -0.42392        8.85003
H          6.53063       -0.06169       10.52030
H         10.54055       -1.62256        4.91694
H         11.18509       -1.31402        2.59878
H          9.84435        0.04994        1.13376
H          5.35157        1.03993        3.17684
H          5.79379        2.41166        4.27295
H          4.08596        0.18277        5.16483
H          5.04681        3.78175        5.76328
H          3.96498        3.77680        7.17872
H          1.69003        3.23023        3.69433
H          2.70767        1.15345        3.38914
H          6.27963        0.20133        6.73336
