86
*****
Si        10.05134       -4.33608        5.20871
C          8.97555       -5.14294        6.58022
C          9.28352       -6.48289        7.26252
C         10.49144       -6.42711        8.19429
C          8.05871       -6.92174        8.08194
C         10.98176       -5.79150        4.00529
C          9.84889       -6.57855        3.29665
C         11.91147       -5.17813        2.93750
C         11.82081       -6.78577        4.83652
C         11.49971       -3.05878        6.07912
C         12.79748       -3.80233        6.42524
C         11.83353       -1.90119        5.11138
C         10.89116       -2.45863        7.36820
N          9.05417       -3.25927        4.19567
C          7.81540       -2.70109        4.48091
C          7.02664       -2.68136        5.65055
C          5.76527       -2.09113        5.63250
C          5.27949       -1.51261        4.47497
C          6.06602       -1.47461        3.31469
I          5.16600       -0.54740        1.66002
C          7.37149       -2.04632        3.30422
C          8.46895       -2.09738        2.37217
C          8.62320       -1.45076        1.02522
C          8.97150        0.05291        1.11521
N         10.34585        0.24754        1.65221
C         11.45023        0.14350        0.67771
C         11.22654        0.98327       -0.55378
C          9.82925        1.19079       -0.99046
C          8.83020        0.73133       -0.22645
O         12.14390        1.43727       -1.23260
C          9.47616       -2.82205        2.97553
S         10.54010        1.31037        2.95509
C         10.30259        2.91301        2.21274
C          9.03342        3.49896        2.22742
C          8.85124        4.76278        1.66331
C          9.93318        5.45259        1.09046
C          9.72965        6.83015        0.50371
F          8.54585        6.94848       -0.16067
F          9.72382        7.80265        1.45554
F         10.69359        7.18371       -0.39070
C         11.20788        4.86244        1.11421
C         11.39641        3.59919        1.67921
O          9.45035        1.10728        3.88491
O         11.91627        1.24067        3.39766
H          8.00280       -5.25830        6.14969
H          9.15443       -4.46698        7.39014
H          9.51324       -7.17905        6.48310
H         10.29707       -5.73791        8.98934
H         11.35111       -6.10460        7.64487
H         10.67280       -7.39973        8.60174
H          7.86469       -6.20004        8.84771
H          8.25191       -7.87402        8.52999
H          7.20718       -6.99656        7.43835
H          9.25605       -5.90410        2.71478
H          9.23185       -7.05378        4.03035
H         10.27712       -7.32080        2.65588
H         11.35946       -4.48168        2.34156
H         12.29761       -5.95548        2.31178
H         12.72206       -4.67187        3.41870
H         11.20406       -7.23085        5.58914
H         12.63217       -6.26598        5.30173
H         12.20772       -7.54958        4.19481
H         13.21908       -4.21782        5.53388
H         12.58393       -4.58857        7.11888
H         13.49393       -3.11884        6.86421
H         12.25632       -2.29856        4.21235
H         12.53645       -1.24062        5.57447
H         10.93896       -1.36283        4.87723
H         10.65344       -3.24733        8.05110
H         10.00078       -1.91780        7.12402
H         11.59827       -1.79559        7.82127
H          7.38487       -3.10492        6.52077
H          5.18955       -2.08568        6.48896
H          4.33114       -1.10572        4.46457
H          7.70358       -1.55654        0.48855
H          9.43428       -1.93861        0.52617
H          8.27508        0.50505        1.79010
H         11.54784       -0.87966        0.38019
H         12.33620        0.50508        1.15647
H          9.62631        1.68408       -1.87392
H          7.87173        0.85246       -0.58932
H         10.40569       -3.00487        2.56617
H          8.23619        3.00032        2.65263
H          7.91379        5.19427        1.66702
H         12.01244        5.36707        0.71040
H         12.33716        3.17554        1.70245
