72
*****
C          9.24084        0.88039        8.98069
Si         8.34020        1.98081        7.73664
C          6.91256        2.84707        8.69751
C          7.11847        3.32089       10.00717
C          6.08452        3.94512       10.70823
C          4.83466        4.10601       10.11561
C          4.61582        3.64633        8.81925
C          5.64534        3.02196        8.11135
C          9.47786        3.38767        7.17806
C         10.75366        3.07936        6.66366
C         11.61983        4.09011        6.23894
C         11.23151        5.42410        6.32028
C          9.97643        5.75006        6.82590
C          9.10590        4.74306        7.25189
N          7.65770        1.00661        6.45691
C          7.51528        1.31155        5.11711
C          7.79726        2.48480        4.38604
C          7.56712        2.51147        3.01309
C          7.05475        1.40029        2.36734
C          6.75719        0.23217        3.08312
Br         6.02578       -1.19117        2.06775
C          6.98441        0.16150        4.48580
C          6.81257       -0.83973        5.51455
C          6.32944       -2.26495        5.41733
C          7.42881       -3.35463        5.54699
N          8.41653       -3.36560        4.46781
C          9.58524       -2.48632        4.55249
C         10.10867       -2.26652        5.96328
C          9.37218       -2.87708        7.09053
C          8.14029       -3.35516        6.87764
O         11.10913       -1.59159        6.20355
C          7.15676       -0.23856        6.71160
O          7.07840       -4.69743        3.15741
C          8.10403       -4.04435        3.30090
O          9.07544       -3.92471        2.36095
C          9.00441       -4.64981        1.10597
C          7.82395       -4.18170        0.25043
C         10.30926       -4.29134        0.37793
C          8.97746       -6.16532        1.33719
H          9.65448        1.48673        9.75925
H         10.02750        0.35116        8.48473
H          8.55059        0.18008        9.40263
H          8.04197        3.20586       10.45319
H          6.24709        4.28806       11.66791
H          4.07133        4.56540       10.63649
H          3.68977        3.76747        8.38018
H          5.47521        2.68611        7.15047
H         11.05198        2.09348        6.59990
H         12.55000        3.84683        5.86394
H         11.87247        6.16959        6.00653
H          9.68754        6.73895        6.88647
H          8.17797        4.99671        7.62557
H          8.17179        3.31812        4.86596
H          7.78001        3.36525        2.47387
H          6.89005        1.43165        1.34905
H          5.85428       -2.38772        4.46651
H          5.67300       -2.40978        6.24980
H          6.85826       -4.25637        5.46805
H          9.31764       -1.53454        4.14333
H         10.36977       -2.97003        4.00894
H          9.80142       -2.93378        8.02731
H          7.63836       -3.75496        7.68588
H          7.05201       -0.66240        7.64670
H          7.88064       -3.12198        0.11371
H          6.90658       -4.42928        0.74239
H          7.85974       -4.66671       -0.70266
H         10.34455       -3.23547        0.20827
H         10.34695       -4.80476       -0.56009
H         11.14490       -4.58419        0.97864
H          8.07389       -6.43276        1.84409
H          9.81881       -6.45011        1.93379
H          9.02086       -6.67068        0.39506
