97
*****
Si        10.05415       -3.57930        5.56240
C          9.01662       -3.65484        7.17706
C          9.26165       -4.63963        8.32915
C         10.54018       -4.35689        9.11303
C          8.07209       -4.58092        9.30146
C         10.72763       -5.49293        5.00522
C          9.46510       -6.35134        4.73083
C         11.59616       -5.46157        3.73215
C         11.55077       -6.17441        6.11819
C         11.68207       -2.25205        5.79244
C         12.92990       -2.95297        6.34922
C         12.04666       -1.60557        4.43687
C         11.24444       -1.13205        6.76563
N          9.08247       -2.89947        4.23330
C          7.86469       -2.24020        4.30100
C          7.14593       -1.68037        5.37736
C          5.86515       -1.17685        5.16671
C          5.28971       -1.23242        3.91006
C          6.01019       -1.73487        2.81556
I          4.94844       -1.81341        1.00990
C          7.34813       -2.19359        2.98148
C          8.42512       -2.60241        2.11495
C          8.54896       -2.58722        0.61718
C          9.17186       -1.27816        0.06969
N          9.66135       -1.44537       -1.30035
C          8.67912       -1.48188       -2.38554
C          7.66552       -0.35296       -2.27071
C          7.55213        0.35780       -0.97583
C          8.22844       -0.10135        0.08573
O          6.88851       -0.06616       -3.17991
C          9.46955       -2.99128        2.93093
C         11.00895       -1.67980       -1.50311
O         11.29438       -1.94129       -2.80251
C         12.67022       -2.19153       -3.14259
C         12.99933       -3.68757       -3.22880
C         11.98028       -4.50845       -4.01277
C         11.51921       -4.31186       -5.30546
C         10.57980       -5.21204       -5.81256
C         10.12096       -6.28776       -5.03437
C         10.59348       -6.48369       -3.73336
C         11.52398       -5.59086       -3.22801
C         12.17770       -5.54576       -1.93742
C         13.03772       -4.42726       -1.89795
C         13.80769       -4.15120       -0.77814
C         13.70521       -5.00642        0.32008
C         12.85239       -6.12106        0.28344
C         12.07859       -6.39533       -0.84797
O         11.85059       -1.63877       -0.61474
H          8.00867       -3.82739        6.86214
H          9.30836       -2.73545        7.64022
H          9.36859       -5.60777        7.88626
H         10.47103       -3.39308        9.57258
H         11.37796       -4.37551        8.44769
H         10.66797       -5.10386        9.86842
H          8.00184       -3.59877        9.72019
H          8.21734       -5.29366       10.08619
H          7.16923       -4.80947        8.77466
H          8.88209       -5.89200        3.96011
H          8.88142       -6.42312        5.62474
H          9.76089       -7.33102        4.41838
H         11.05070       -4.99314        2.93971
H         11.84925       -6.46171        3.44832
H         12.49141       -4.90808        3.92469
H         10.97254       -6.21124        7.01775
H         12.44638       -5.61548        6.29251
H         11.80422       -7.16911        5.81614
H         13.23355       -3.72795        5.67683
H         12.70368       -3.37816        7.30470
H         13.72189       -2.24117        6.45407
H         12.35239       -2.36652        3.74957
H         12.84702       -0.90947        4.57747
H         11.19299       -1.09312        4.04503
H         10.98767       -1.56156        7.71141
H         10.39445       -0.62177        6.36309
H         12.04848       -0.43812        6.89554
H          7.56803       -1.64402        6.31838
H          5.34213       -0.75981        5.95255
H          4.32150       -0.90129        3.77612
H          7.57297       -2.70242        0.19401
H          9.20257       -3.38909        0.34390
H          9.98151       -1.06939        0.73736
H          8.16061       -2.41724       -2.35165
H          9.20280       -1.36482       -3.31126
H          6.95842        1.19778       -0.89235
H          8.09342        0.38817        0.98415
H         10.39781       -3.30261        2.60470
H         13.29337       -1.74705       -2.39491
H         12.84520       -1.76722       -4.10915
H         13.96072       -3.63298       -3.69532
H         11.86048       -3.52290       -5.87652
H         10.21819       -5.08546       -6.77081
H          9.42632       -6.94162       -5.42804
H         10.25688       -7.27503       -3.16284
H         14.43943       -3.33542       -0.75739
H         14.26223       -4.81744        1.16805
H         12.79602       -6.74619        1.10263
H         11.44804       -7.21197       -0.87100
