67
*****
C         11.14448       -4.66318       -6.02470
Si         9.56514       -5.15932       -6.90517
C          9.71964       -4.82145       -8.75354
C          9.45731       -7.31944       -6.73883
C          9.48131       -7.68688       -5.23906
C          8.16747       -7.83491       -7.49312
C          8.30651       -9.28194       -7.99540
C          6.87916       -7.76710       -6.65834
C         10.77240       -7.82187       -7.39883
N          8.11913       -4.47237       -6.22066
C          7.84948       -4.18992       -4.89619
C          8.58472       -4.43416       -3.71692
C          8.06242       -4.04341       -2.48706
C          6.82620       -3.42608       -2.41675
C          6.08220       -3.18031       -3.57953
Br         4.39249       -2.36230       -3.31410
C          6.58633       -3.55328       -4.85695
C          6.13377       -3.43974       -6.22559
C          4.89061       -2.80298       -6.78948
C          5.09782       -1.42817       -7.48258
N          5.57394       -0.35776       -6.59911
C          7.01132       -0.18218       -6.39177
C          7.86785       -0.46656       -7.61388
C          7.21743       -1.04219       -8.80964
C          5.95934       -1.48923       -8.71907
O          9.08185       -0.26948       -7.63656
C          7.08096       -4.07225       -7.01049
C          4.72397        0.32836       -5.75193
O          3.41834        0.01071       -5.95380
C          2.49080        0.70525       -5.09448
C          1.04469        0.28291       -5.38890
Cl         0.83165       -1.47955       -5.14063
Cl        -0.07493        1.15345       -4.29399
Cl         0.60531        0.67755       -7.08274
O          5.09001        1.14195       -4.91358
H         11.98117       -5.12550       -6.50545
H         11.09893       -4.98141       -5.00413
H         11.25462       -3.59952       -6.06206
H         10.62153       -5.26329       -9.12271
H          9.74497       -3.76512       -8.92214
H          8.88011       -5.24420       -9.26479
H          8.58019       -7.34569       -4.77380
H         10.32301       -7.22062       -4.77104
H          9.55737       -8.74891       -5.13321
H          8.08667       -7.15725       -8.31723
H          8.38591       -9.94390       -7.15850
H          9.18429       -9.36633       -8.60144
H          7.44606       -9.54228       -8.57570
H          6.95356       -8.44288       -5.83209
H          6.04390       -8.04052       -7.26865
H          6.74293       -6.77067       -6.29299
H         11.61197       -7.44624       -6.85210
H         10.82003       -7.47345       -8.40939
H         10.79020       -8.89168       -7.38919
H          9.50440       -4.89980       -3.76583
H          8.60020       -4.21514       -1.62317
H          6.44785       -3.14362       -1.49910
H          4.19726       -2.66580       -5.98615
H          4.54136       -3.46663       -7.55268
H          4.10258       -1.17237       -7.78082
H          7.31834       -0.84314       -5.60833
H          7.15853        0.85037       -6.15289
H          7.72792       -1.09877       -9.70475
H          5.54445       -1.91044       -9.56493
H          7.01328       -4.21811       -8.02988
H          2.58704        1.75875       -5.25497
H          2.71754        0.45811       -4.07840
