57
*****
C         13.66211       -7.23651        2.45504
C         13.72256       -5.96309        3.28993
Si        12.05761       -5.29922        3.92463
C         11.11219       -6.70410        4.82524
C         11.88737       -7.40027        5.93639
C         12.40743       -3.95081        5.24719
C         13.03028       -2.67081        4.70702
N         11.05568       -4.62276        2.66529
C          9.77716       -4.11905        2.79781
C          8.95755       -3.91594        3.92852
C          7.68080       -3.38365        3.75907
C          7.22092       -3.04733        2.49592
C          8.02774       -3.24499        1.36674
Br         7.30353       -2.68548       -0.29709
C          9.33019       -3.79943        1.49739
C         10.39278       -4.15880        0.58308
C         10.35822       -4.11819       -0.92823
C         11.39108       -5.04051       -1.64883
N         10.75251       -6.02260       -2.54527
C         10.88261       -5.93555       -4.00338
C         11.90340       -4.97438       -4.58017
C         12.68505       -4.14569       -3.65238
C         12.43236       -4.20453       -2.34318
O         12.09651       -4.86950       -5.78722
C         11.46701       -4.54215        1.36621
O          9.94583       -7.14603       -0.70744
C          9.97825       -7.03721       -1.93873
C          9.18124       -8.00353       -2.85152
F         10.00076       -8.78822       -3.60639
F          8.37046       -8.85019       -2.16028
F          8.37769       -7.33787       -3.72927
H         14.65115       -7.51383        2.15540
H         13.06110       -7.06536        1.58648
H         13.23163       -8.02447        3.03703
H         14.17151       -5.19958        2.68960
H         14.28224       -6.21946        4.16511
H         10.84314       -7.44110        4.09768
H         10.27068       -6.24058        5.29631
H         12.74655       -7.88515        5.52214
H         11.25977       -8.12770        6.40742
H         12.20033       -6.67700        6.66015
H         13.07434       -4.36383        5.97489
H         11.45686       -3.67437        5.65325
H         13.98922       -2.89072        4.28633
H         13.14354       -1.96550        5.50364
H         12.39582       -2.25667        3.95149
H          9.30011       -4.15908        4.87115
H          7.07321       -3.23884        4.58059
H          6.27587       -2.64771        2.38547
H         10.54554       -3.11047       -1.23533
H          9.39235       -4.48236       -1.20996
H         11.88471       -5.62947       -0.90429
H          9.92633       -5.65082       -4.38984
H         11.23801       -6.90210       -4.29386
H         13.42495       -3.52191       -4.01080
H         13.01807       -3.60854       -1.73758
H         12.42151       -4.73524        1.02466
