71
*****
Si         8.80820       -1.11326        7.33725
C          8.76731       -2.68421        8.45001
C          9.34271       -2.67733        9.73492
C          9.32961       -3.82418       10.53278
C          8.74848       -4.99776       10.06182
C          8.18560       -5.02905        8.78947
C          8.19849       -3.88572        7.98635
C         10.68541       -0.79116        7.00719
C         11.65717       -1.78618        7.21807
C         13.00536       -1.53766        6.94570
C         13.40562       -0.29931        6.45119
C         12.45764        0.69221        6.21954
C         11.10855        0.44790        6.48624
C          8.02255        0.48512        8.43867
C          9.15256        1.18281        9.23478
C          7.39058        1.50468        7.46542
C          6.95556        0.01723        9.45036
N          7.95299       -1.36988        5.82440
C          6.60699       -1.60936        5.62310
C          5.55770       -1.82573        6.53870
C          4.25889       -1.99076        6.07329
C          3.99897       -1.96742        4.71561
C          5.04020       -1.81030        3.78435
I          4.42681       -1.87047        1.78363
C          6.38668       -1.64035        4.22302
C          7.69079       -1.52394        3.60047
C          8.10184       -1.59279        2.14975
C          8.64546       -0.28224        1.51956
N          7.68413        0.82616        1.48073
C          7.57945        1.70856        2.65107
C          8.90061        1.98750        3.35385
C         10.09819        1.24036        2.92220
C          9.95029        0.19378        2.10259
O          8.99937        2.78580        4.28398
C          8.61057       -1.42229        4.62893
O          6.83024        0.02371       -0.49069
C          6.74908        0.84631        0.43058
C          5.64823        1.93555        0.44360
F          4.96903        1.97368        1.62556
F          6.16814        3.18335        0.26394
F          4.71197        1.76693       -0.52953
H          9.78003       -1.81356       10.09225
H          9.75209       -3.80098       11.47405
H          8.73500       -5.84250       10.65448
H          7.75722       -5.89964        8.43792
H          7.78575       -3.92247        7.04120
H         11.37137       -2.71019        7.57798
H         13.70741       -2.27558        7.11194
H         14.40273       -0.11739        6.25700
H         12.75173        1.60981        5.85003
H         10.41150        1.18554        6.29904
H          9.91006        1.51949        8.55821
H          9.57819        0.49063        9.93094
H          8.75033        2.02044        9.76534
H          8.12818        1.83115        6.76238
H          7.02662        2.34613        8.01715
H          6.57917        1.04301        6.94257
H          7.39034       -0.68931       10.12612
H          6.14449       -0.44328        8.92596
H          6.59194        0.85983       10.00054
H          5.75329       -1.86147        7.55136
H          3.48623       -2.13113        6.74285
H          3.02765       -2.06666        4.38139
H          7.24564       -1.89473        1.58350
H          8.92039       -2.28128        2.12031
H          8.82866       -0.58160        0.50875
H          6.91652        1.25139        3.35564
H          7.22295        2.65060        2.28998
H         11.03615        1.52147        3.24812
H         10.80138       -0.33162        1.84835
H          9.63530       -1.39093        4.51079
