74
*****
Si        10.32693       -3.90232        4.92542
C         10.70585       -2.96970        6.59813
C         11.46629       -3.81407        7.62631
C         11.43036       -1.63042        6.39936
C          9.01980       -5.37787        5.35269
C          7.74693       -4.87964        6.04048
C          8.66167       -6.19071        4.10168
C         11.93007       -4.81364        4.20546
C         13.10449       -3.85369        3.98418
C         12.39206       -6.02932        5.01770
N          9.57842       -2.87190        3.71801
C          8.64922       -1.86316        3.90533
C          7.96255       -1.41859        5.05498
C          7.09991       -0.32981        4.96798
C          6.91485        0.32130        3.76157
C          7.57740       -0.11538        2.60362
I          7.18020        1.00551        0.87493
C          8.45186       -1.23934        2.64968
C          9.24926       -1.97506        1.69806
C          9.43152       -1.76544        0.22199
C         10.57301       -0.77636       -0.10570
N         11.89801       -1.39997        0.16284
C         12.43998       -2.26824       -0.90258
C         12.39677       -1.63315       -2.26880
C         11.32566       -0.64837       -2.53010
C         10.49717       -0.30253       -1.53687
O         13.15895       -1.94965       -3.17885
C          9.88353       -2.98564        2.39408
O         14.14477       -1.38428        1.36352
S         13.00089       -0.53361        1.11047
C         13.53510        0.76939        0.02216
C         12.89109        2.01039        0.06012
C         13.31687        3.03107       -0.78954
C         14.38705        2.81491       -1.65925
C         15.04327        1.58301       -1.67523
C         14.62604        0.55817       -0.82649
O         12.28215        0.08178        2.20545
H          9.73188       -2.77267        6.99494
H         12.44734       -4.02802        7.25662
H         10.94052       -4.73080        7.79391
H         11.54196       -3.27298        8.54630
H         12.40779       -1.80915        6.00238
H         11.51394       -1.12709        7.33987
H         10.87419       -1.02182        5.71732
H          9.52335       -6.01437        6.04998
H          7.21025       -4.23640        5.37481
H          8.00833       -4.33862        6.92584
H          7.13215       -5.71552        6.30173
H          8.15744       -5.56054        3.39916
H          8.02160       -7.00327        4.37545
H          9.55622       -6.57519        3.65799
H         11.60378       -5.18568        3.25676
H         13.43872       -3.47556        4.92769
H         12.78829       -3.03991        3.36556
H         13.90624       -4.37553        3.50482
H         12.72987       -5.70745        5.98060
H         13.19316       -6.51815        4.50371
H         11.57553       -6.71071        5.13558
H          8.09956       -1.89938        5.95781
H          6.59550       -0.00642        5.80822
H          6.28346        1.13613        3.71237
H          8.51913       -1.38127       -0.18404
H          9.69040       -2.71034       -0.20818
H         10.45726        0.07623        0.53037
H         11.86643       -3.17114       -0.92948
H         13.46840       -2.45066       -0.67026
H         11.21766       -0.23190       -3.46814
H          9.73357        0.35055       -1.77229
H         10.49038       -3.70984        1.97898
H         12.10690        2.16955        0.71184
H         12.84057        3.94647       -0.77526
H         14.69442        3.56907       -2.29313
H         15.83795        1.43051       -2.31574
H         15.11849       -0.34875       -0.82480
