75
*****
Si         9.71862       -4.15947        5.13461
C         10.43165       -2.99063        6.47846
C         11.59465       -2.05089        6.08853
C         11.48034       -0.73181        6.86215
C         12.96162       -2.67503        6.37400
C          8.42249       -5.31630        5.94920
C          7.02732       -4.82296        6.38394
C          7.05504       -3.66095        7.37511
C          6.08868       -4.51076        5.21907
C         11.13227       -5.28933        4.43003
C         11.90125       -6.19261        5.41651
C         11.19533       -7.53108        5.65436
C         13.30429       -6.47944        4.86490
N          8.99836       -3.29704        3.79325
C          8.47120       -3.84443        2.63945
C          8.29049       -5.18532        2.23720
C          7.74703       -5.45710        0.98494
C          7.38968       -4.42290        0.13637
C          7.55403       -3.08440        0.52778
I          6.97648       -1.65451       -0.89622
C          8.08902       -2.76654        1.80944
C          8.36877       -1.54941        2.54660
C          8.14912       -0.13125        2.08321
C          8.35707        0.99457        3.12674
N          8.48417        2.31344        2.48116
C          7.25916        3.01195        2.07066
C          6.10925        2.89513        3.05783
C          6.22270        1.90823        4.14901
C          7.24652        1.04680        4.14795
O          5.07552        3.55006        2.94420
C          8.90966       -1.93639        3.75869
O         10.72898        1.93350        2.17798
C          9.74953        2.65813        1.96300
C          9.87710        3.96067        1.13469
F          9.59078        5.06797        1.87580
F         11.12187        4.15294        0.62034
F          9.01852        3.97721        0.07488
H         10.77735       -3.60593        7.28270
H          9.62312       -2.32898        6.70952
H         11.52041       -1.87675        5.03541
H         11.55673       -0.92605        7.91160
H         10.53562       -0.27561        6.65170
H         12.26891       -0.07337        6.56296
H         13.05786       -2.85815        7.42381
H         13.73299       -2.00482        6.05666
H         13.05024       -3.59872        5.84123
H          8.88650       -5.70857        6.82994
H          8.17988       -5.97579        5.14229
H          6.62330       -5.66780        6.90155
H          7.45436       -2.79208        6.89500
H          7.66962       -3.92035        8.21171
H          6.06056       -3.45649        7.71290
H          6.46219       -3.66780        4.67611
H          5.11293       -4.28758        5.59721
H          6.03373       -5.35832        4.56828
H         11.84912       -4.64691        3.96278
H         10.62697       -5.97393        3.78126
H         11.95094       -5.66799        6.34774
H         11.13573       -8.07158        4.73284
H         10.20855       -7.35250        6.02756
H         11.74858       -8.10410        6.36882
H         13.22193       -7.00349        3.93566
H         13.84731       -7.07878        5.56548
H         13.82187       -5.55602        4.70897
H          8.55913       -5.95789        2.86648
H          7.60956       -6.43556        0.68703
H          6.99827       -4.63819       -0.79394
H          7.14168       -0.06047        1.72973
H          8.90262        0.03672        1.34231
H          9.26948        0.75862        3.63343
H          6.93926        2.60446        1.13444
H          7.50576        4.05141        2.01055
H          5.52018        1.88273        4.90455
H          7.28000        0.35610        4.91401
H          9.19979       -1.29807        4.51592
