86
*****
Si         9.88675       -4.26053        5.10431
C          8.84158       -5.14593        6.45925
C          9.24431       -6.46247        7.15295
C         10.22920       -6.28133        8.30573
C          7.98137       -7.14474        7.70517
C         11.02480       -5.65172        4.02313
C         10.06060       -6.76112        3.52685
C         11.71281       -5.06366        2.77359
C         12.12035       -6.26276        4.92005
C         11.14077       -2.82160        6.02555
C         11.78531       -3.38869        7.29920
C         12.24325       -2.34611        5.06340
C         10.25365       -1.61386        6.42042
N          8.87128       -3.29740        4.00711
C          7.56682       -2.85585        4.19155
C          6.65878       -2.96867        5.26618
C          5.37164       -2.44375        5.15114
C          4.97777       -1.79463        3.99529
C          5.87680       -1.63293        2.93553
Br         5.23026       -0.67845        1.42566
C          7.19873       -2.15118        3.01962
C          8.36577       -2.09881        2.18282
C          8.56939       -1.39705        0.87126
C          8.89680        0.10408        1.03974
N         10.23958        0.27943        1.65573
C         11.39554        0.19997        0.74063
C         11.23830        1.07522       -0.47725
C          9.86555        1.31133       -0.97484
C          8.82572        0.83337       -0.27957
O         12.19201        1.53684       -1.09858
C          9.36752       -2.77157        2.85036
S         10.36869        1.28640        3.00778
C         10.24895        2.91992        2.30596
C          9.00268        3.54749        2.22544
C          8.91246        4.83292        1.68813
C         10.06300        5.50158        1.23632
C          9.95968        6.90146        0.67691
F          8.82115        7.09762       -0.04555
F          9.95230        7.84969        1.65289
F         10.98736        7.22545       -0.15569
C         11.31124        4.86830        1.35586
C         11.40781        3.58389        1.89509
O          9.20399        1.09576        3.84425
O         11.70360        1.14654        3.54978
H          7.89024       -5.33783        6.00868
H          8.94432       -4.45575        7.27043
H          9.73437       -7.05516        6.40900
H          9.77463       -5.69114        9.07381
H         11.10851       -5.78674        7.94922
H         10.49461       -7.23918        8.70195
H          7.52931       -6.51500        8.44271
H          8.24724       -8.08088        8.14999
H          7.28891       -7.31301        6.90699
H          9.30548       -6.32591        2.90615
H          9.60068       -7.23641        4.36797
H         10.61063       -7.48621        2.96416
H         10.97504       -4.63121        2.13048
H         12.22924       -5.84177        2.25134
H         12.41129       -4.31017        3.07238
H         11.67160       -6.67972        5.79735
H         12.81584       -5.50046        5.20309
H         12.63379       -7.03206        4.38204
H         12.40248       -4.22489        7.04469
H         11.01937       -3.70380        7.97664
H         12.38310       -2.63242        7.76353
H         12.85871       -3.17684        4.78774
H         12.84254       -1.60316        5.54691
H         11.79521       -1.92765        4.18645
H          9.48507       -1.93962        7.08980
H          9.80801       -1.19629        5.54182
H         10.85534       -0.87179        6.90228
H          6.94741       -3.43993        6.13774
H          4.70762       -2.54058        5.93519
H          4.01655       -1.42792        3.91409
H          7.67454       -1.48885        0.29184
H          9.40514       -1.85664        0.38629
H          8.16062        0.52737        1.69071
H         11.50866       -0.81461        0.42011
H         12.25487        0.54524        1.27656
H          9.71084        1.83867       -1.84833
H          7.88726        0.97731       -0.68405
H         10.34256       -2.86313        2.52489
H          8.15492        3.06397        2.56089
H          7.99266        5.29621        1.62214
H         12.16455        5.35674        1.04232
H         12.32885        3.12806        1.98955
