82
*****
Si         8.77806        5.29797        5.52597
C          7.65588        5.32930        7.08542
C          7.93079        6.17449        8.17551
C          7.11912        6.16674        9.31324
C          6.02582        5.30908        9.38834
C          5.74619        4.45151        8.32908
C          6.55570        4.45502        7.19028
C         10.39954        4.41956        6.08345
C         10.49397        3.74491        7.31420
C         11.67623        3.09872        7.68785
C         12.78037        3.10717        6.83985
C         12.70460        3.75877        5.61331
C         11.52634        4.40686        5.23617
C          9.24272        7.26363        4.95733
C         10.46499        7.76934        5.75751
C          9.58965        7.27994        3.44991
C          8.05505        8.21508        5.20536
N          8.00684        4.46771        4.18902
C          6.80718        4.77532        3.57255
C          5.78381        5.68600        3.90547
C          4.70476        5.84659        3.03804
C          4.63561        5.12254        1.85822
C          5.63004        4.18955        1.53569
Br         5.43237        3.27293       -0.11479
C          6.72593        3.97321        2.41289
C          7.85174        3.07616        2.44966
C          8.23923        1.98338        1.49618
C          9.22146        2.46256        0.40429
N         10.53747        2.80847        1.00631
C         11.44754        1.67756        1.28069
C         11.62126        0.77090        0.08742
C         10.48561        0.65564       -0.85435
C          9.39960        1.41720       -0.66907
O         12.62744        0.09077       -0.09636
C          8.57749        3.38568        3.58311
S         11.22323        4.30399        0.62853
C         11.85192        4.05279       -1.01842
C         11.05553        4.37578       -2.12022
C         11.55199        4.17653       -3.41010
C         12.84459        3.66139       -3.60784
C         13.38273        3.46351       -5.00607
F         12.41667        3.10774       -5.89866
F         13.95654        4.59220       -5.50431
F         14.33369        2.49180       -5.08248
C         13.64367        3.37646       -2.48832
C         13.15400        3.57732       -1.19633
O         10.16817        5.29045        0.54392
O         12.35941        4.51220        1.50135
H          8.74338        6.80936        8.13467
H          7.33133        6.79936       10.10051
H          5.42443        5.30916       10.22701
H          4.93879        3.81116        8.38465
H          6.34481        3.80785        6.41457
H          9.68061        3.72669        7.94913
H         11.73068        2.61306        8.59681
H         13.65221        2.63152        7.12037
H         13.52023        3.76335        4.98104
H         11.47973        4.88424        4.32241
H         11.29528        7.11506        5.59183
H         10.22649        7.78587        6.80046
H         10.71918        8.75710        5.43407
H         10.41351        6.62230        3.26639
H          9.85438        8.27402        3.15558
H          8.74105        6.95479        2.88507
H          7.80647        8.21147        6.24608
H          7.21057        7.88741        4.63582
H          8.32390        9.20665        4.90632
H          5.83314        6.22807        4.78226
H          3.95106        6.51009        3.27621
H          3.84507        5.27183        1.21186
H          7.35424        1.61385        1.02169
H          8.73332        1.22173        2.06244
H          8.80512        3.33738       -0.04986
H         11.04780        1.10470        2.09120
H         12.40740        2.08462        1.52126
H         10.53002       -0.00495       -1.64597
H          8.61185        1.27598       -1.32062
H          9.41384        2.88176        3.91719
H         10.10731        4.75880       -1.98169
H         10.96430        4.40969       -4.22574
H         14.60119        3.01545       -2.62197
H         13.74970        3.37599       -0.37802
