75
*****
Si         9.89569       -4.09714        4.96764
C         10.17642       -2.98896        6.50873
C         11.33602       -3.14295        7.51480
C         11.52079       -1.81341        8.26689
C         11.13694       -4.24576        8.55023
C          8.71046       -5.78261        5.48903
C          7.25012       -5.28603        5.64730
C          8.76272       -6.87494        4.40614
C          9.16275       -6.38618        6.82611
C         11.74602       -4.71314        4.18463
C         12.42202       -5.72085        5.13520
C         11.64278       -5.36284        2.78995
C         12.63020       -3.44777        4.03149
N          8.94161       -3.28894        3.69757
C          8.20093       -2.11715        3.76289
C          7.99991       -1.15917        4.77951
C          7.22394       -0.02670        4.52980
C          6.63923        0.16660        3.29170
C          6.78744       -0.79348        2.28531
Br         5.95906       -0.40490        0.62021
C          7.55081       -1.97219        2.51199
C          7.81221       -3.17086        1.75549
C          7.19284       -3.58969        0.43958
C          7.20604       -5.12310        0.14745
N          5.85682       -5.69685       -0.00888
C          5.33127       -6.06009       -1.32886
C          6.32978       -6.27020       -2.45140
C          7.74184       -5.94551       -2.20097
C          8.10065       -5.42838       -1.02366
O          5.99433       -6.67152       -3.56132
C          8.72962       -3.89365        2.48980
O          5.51406       -5.46192        2.25279
C          5.04635       -5.75525        1.14660
C          3.57247       -6.20873        0.99429
F          3.47657       -7.52359        0.64910
F          2.84219       -6.05616        2.13247
F          2.91493       -5.51174        0.02386
H          9.28222       -3.07773        7.08960
H         10.45479       -2.07057        6.03548
H         12.19337       -3.41422        6.93492
H         10.63574       -1.59444        8.82691
H         11.70118       -1.02771        7.56330
H         12.35396       -1.89349        8.93346
H         10.28579       -4.01621        9.15664
H         12.00722       -4.31553        9.16882
H         10.97821       -5.17895        8.05136
H          6.91587       -4.86101        4.72398
H          7.20703       -4.54455        6.41754
H          6.61971       -6.10985        5.90962
H          8.44896       -6.46384        3.46941
H          8.11148       -7.67895        4.67883
H          9.76404       -7.24148        4.31730
H          9.12991       -5.63390        7.58630
H         10.16308       -6.75393        6.73122
H          8.51051       -7.19141        7.09276
H         11.80385       -6.58870        5.23317
H         12.55772       -5.26932        6.09573
H         13.37375       -6.00402        4.73654
H         11.03826       -6.24362        2.85065
H         12.62125       -5.62487        2.44523
H         11.19719       -4.67084        2.10622
H         12.72821       -2.96410        4.98089
H         12.17410       -2.77618        3.33447
H         13.59816       -3.73021        3.67348
H          8.42736       -1.29639        5.70875
H          7.08516        0.67283        5.27574
H          6.09162        1.02215        3.10958
H          7.72773       -3.09980       -0.34706
H          6.16142       -3.31124        0.49900
H          7.61360       -5.60649        1.01067
H          4.66661       -5.27915       -1.63426
H          4.87922       -7.01927       -1.18563
H          8.45117       -6.11634       -2.93083
H          9.10296       -5.21412       -0.90322
H          9.18820       -4.76258        2.17405
