88
*****
Si         9.93725       -3.61738        4.68954
C          8.99152       -5.34075        5.14073
C          9.72187       -6.16270        6.20848
C          7.52661       -5.16365        5.54260
C         11.76810       -4.15207        4.15267
C         11.82099       -5.30425        3.14067
C         12.64586       -2.98330        3.69077
C         10.06431       -2.53691        6.34973
C         11.17980       -3.00432        7.29574
C         10.25776       -1.03682        6.07320
N          9.01941       -2.78653        3.44741
C          7.83976       -2.07273        3.59762
C          7.00516       -1.86210        4.71709
C          5.87365       -1.06062        4.59787
C          5.56621       -0.46043        3.39029
C          6.38389       -0.65368        2.26606
I          5.76403        0.36035        0.53472
C          7.54200       -1.48084        2.34661
C          8.58541       -1.89620        1.44166
C          8.82358       -1.50592        0.00600
C          8.01940       -2.32279       -1.03278
N          7.87209       -1.76455       -2.39630
C          6.98144       -2.51480       -3.28356
C          7.34936       -3.99497       -3.31624
C          8.23166       -4.52201       -2.24498
C          8.52798       -3.74091       -1.19622
O          6.87260       -4.78167       -4.13285
C          9.44050       -2.71527        2.15388
C          8.58429       -0.71951       -2.96627
O          9.56398       -0.24301       -2.16789
C         10.36465        0.85734       -2.63936
C         11.71615        0.39354       -3.19742
C         11.63033       -0.30905       -4.54468
C         11.11472        0.17710       -5.73663
C         11.15600       -0.65170       -6.85809
C         11.71274       -1.93825       -6.77862
C         12.23948       -2.41918       -5.57525
C         12.19776       -1.59823       -4.46043
C         12.66608       -1.81761       -3.10791
C         12.40691       -0.66167       -2.33814
C         12.76198       -0.59216       -0.99932
C         13.37612       -1.70617       -0.42337
C         13.62911       -2.86055       -1.18284
C         13.27562       -2.92114       -2.53451
O          8.34301       -0.25923       -4.07526
H          9.00713       -5.88431        4.21921
H          9.71359       -5.62982        7.13632
H         10.73336       -6.32815        5.90122
H          9.22854       -7.10394        6.33333
H          7.47246       -4.62190        6.46373
H          7.07213       -6.12436        5.66660
H          7.01032       -4.62077        4.77865
H         12.18691       -4.52396        5.06437
H         11.41059       -4.97862        2.20770
H         11.25195       -6.13105        3.51147
H         12.83732       -5.60653        2.99715
H         12.25641       -2.58388        2.77770
H         13.64560       -3.32951        3.53088
H         12.64826       -2.22069        4.44131
H          9.11988       -2.68891        6.82917
H         12.13020       -2.85712        6.82672
H         11.04817       -4.04295        7.51671
H         11.13837       -2.43861        8.20302
H         11.20157       -0.88136        5.59364
H         10.23414       -0.49785        6.99723
H          9.47221       -0.68735        5.43627
H          7.23393       -2.30183        5.62225
H          5.26068       -0.91333        5.41494
H          4.72705        0.13554        3.31514
H          9.86483       -1.63342       -0.20479
H          8.49345       -0.49250       -0.08832
H          7.05261       -2.28346       -0.57597
H          7.05744       -2.11486       -4.27309
H          5.98143       -2.42353       -2.91402
H          8.61275       -5.47907       -2.30680
H          9.13710       -4.12750       -0.45829
H         10.26727       -3.19679        1.76708
H         10.54029        1.52925       -1.82537
H          9.82931        1.33709       -3.43192
H         12.24544        1.32235       -3.24284
H         10.71171        1.12551       -5.79256
H         10.77327       -0.31562       -7.75563
H         11.73361       -2.53690       -7.61898
H         12.64993       -3.36439       -5.51935
H         12.57763        0.25838       -0.44468
H         13.64736       -1.68114        0.57203
H         14.08158       -3.67423       -0.73763
H         13.46465       -3.76878       -3.09200
