79
*****
Si        10.09600       -4.04509        5.15473
C         10.76101       -3.03509        6.74235
C         10.97895       -3.70129        8.11409
C         12.33342       -4.39233        8.25674
C         10.86979       -2.63590        9.21704
C          9.10042       -5.77398        5.72810
C          7.94240       -5.38204        6.68206
C          8.45855       -6.49022        4.52020
C         10.04988       -6.76415        6.42796
C         11.82056       -4.44277        4.00040
C         13.02081       -4.72610        4.93120
C         11.69129       -5.65077        3.06028
C         12.13917       -3.16789        3.18093
N          8.93283       -3.02840        4.26573
C          8.46993       -3.13519        2.96420
C          8.60302       -4.15124        1.99988
C          8.06164       -3.99249        0.72888
C          7.36163       -2.84555        0.41102
C          7.17522       -1.83444        1.36666
I          5.96100       -0.24892        0.72422
C          7.73440       -1.95622        2.67363
C          7.74125       -1.16884        3.88076
C          7.17466        0.19273        4.18275
C          8.18447        1.37146        4.06711
N          9.35599        1.26049        4.94437
C         10.60518        0.68220        4.44203
C         10.84923        0.79999        2.95055
C          9.80412        1.42026        2.11812
C          8.60581        1.67178        2.65494
O         11.88618        0.40471        2.42043
C          8.35054       -1.94186        4.85157
C          9.16195        1.44149        6.30165
O         10.26814        1.13619        7.03004
C         10.18601        1.35711        8.45569
C         10.90012        2.64670        8.89652
Cl        10.15193        4.10721        8.18805
Cl        10.82748        2.78096       10.68526
Cl        12.62809        2.59689        8.41167
O          8.11230        1.82449        6.80074
H         10.06125       -2.24209        6.90474
H         11.76333       -2.80112        6.44993
H         10.22419       -4.45449        8.20323
H         13.11487       -3.66630        8.17242
H         12.44286       -5.12539        7.48502
H         12.39148       -4.86945        9.21271
H         11.64231       -1.90713        9.08667
H         10.97658       -3.10149       10.17449
H          9.91451       -2.15757        9.15760
H          7.28925       -4.69450        6.18649
H          8.34422       -4.92211        7.56065
H          7.39469       -6.25905        6.95730
H          7.79378       -5.81808        4.01899
H          7.91181       -7.34439        4.86131
H          9.22525       -6.80453        3.84323
H         10.50604       -6.28648        7.26977
H         10.80836       -7.07703        5.74115
H          9.49492       -7.61690        6.75922
H         12.82415       -5.60467        5.50941
H         13.16820       -3.89332        5.58668
H         13.90129       -4.87651        4.34210
H         11.47130       -6.52700        3.63364
H         12.61113       -5.79176        2.53216
H         10.90141       -5.47499        2.36022
H         12.22760       -2.33153        3.84244
H         11.35016       -2.98726        2.48112
H         13.05988       -3.30403        2.65305
H          9.10599       -5.02046        2.23758
H          8.18339       -4.73384        0.02135
H          6.97198       -2.73066       -0.53766
H          6.79521        0.17889        5.18311
H          6.42289        0.37221        3.44279
H          7.61738        2.20755        4.41962
H         10.60570       -0.35842        4.69103
H         11.38696        1.24812        4.90405
H          9.99470        1.65788        1.13210
H          7.90311        2.11404        2.04204
H          8.36312       -1.73036        5.86158
H         10.63709        0.52681        8.95771
H          9.15126        1.45669        8.70920
