79
*****
Si        10.09610       -4.07588        5.05300
C         10.69711       -3.06044        6.66093
C         10.89274       -3.73012        8.03408
C         12.25803       -4.39252        8.20734
C         10.73156       -2.67448        9.13989
C          9.13245       -5.83463        5.58620
C          7.93838       -5.48255        6.51074
C          8.54400       -6.55592        4.35405
C         10.08808       -6.80513        6.30478
C         11.85580       -4.41916        3.93639
C         13.04265       -4.67403        4.89273
C         11.78114       -5.62650        2.98952
C         12.15755       -3.13228        3.12934
N          8.92509       -3.08403        4.14825
C          8.50452       -3.18299        2.83184
C          8.68474       -4.17648        1.85165
C          8.17874       -3.99685        0.56671
C          7.47315       -2.85208        0.24912
C          7.24294       -1.86910        1.21969
Br         6.16556       -0.40769        0.66691
C          7.75560       -2.01598        2.53969
C          7.69076       -1.25430        3.75797
C          7.06000        0.08129        4.04598
C          8.02280        1.29972        3.95307
N          9.18713        1.22608        4.84363
C         10.46189        0.69627        4.35224
C         10.72076        0.83936        2.86543
C          9.66247        1.42528        2.02452
C          8.44850        1.62532        2.54775
O         11.77852        0.48833        2.34532
C          8.29115       -2.02535        4.73529
C          8.96901        1.38323        6.20023
O         10.07634        1.11051        6.93969
C          9.96686        1.30739        8.36697
C         10.62412        2.61715        8.83585
Cl         9.82866        4.05785        8.13852
Cl        10.52301        2.72172       10.62524
Cl        12.35891        2.64192        8.37400
O          7.89923        1.72031        6.68990
H          9.97658       -2.28333        6.80869
H         11.70129       -2.80260        6.39627
H         10.15213       -4.49957        8.09980
H         13.02533       -3.64922        8.14688
H         12.40292       -5.11838        7.43467
H         12.30229       -4.87400        9.16186
H         11.49114       -1.92832        9.03412
H         10.82341       -3.14377       10.09710
H          9.76794       -2.21660        9.05815
H          7.28077       -4.80838        6.00287
H          8.30319       -5.01992        7.40393
H          7.40725       -6.37640        6.76338
H          7.87595       -5.89671        3.84020
H          8.01080       -7.42746        4.67188
H          9.33753       -6.84337        3.69634
H         10.50701       -6.32296        7.16321
H         10.87398       -7.09134        5.63743
H          9.54725       -7.67543        6.61297
H         12.85730       -5.56030        5.46289
H         13.15265       -3.84058        5.55467
H         13.93975       -4.79768        4.32280
H         11.57250       -6.51072        3.55479
H         12.71621       -5.74004        2.48191
H         11.00271       -5.46971        2.27233
H         12.20782       -2.29680        3.79594
H         11.37990       -2.97029        2.41245
H         13.09339       -3.24062        2.62204
H          9.19449       -5.04260        2.08623
H          8.33144       -4.72200       -0.15153
H          7.11357       -2.72062       -0.70924
H          6.65816        0.05122        5.03720
H          6.31791        0.22962        3.28955
H          7.42104        2.11127        4.30546
H         10.49476       -0.34648        4.58990
H         11.21796        1.28280        4.83102
H          9.85595        1.67839        1.04293
H          7.73602        2.04267        1.92871
H          8.26485       -1.83203        5.74868
H         10.44333        0.48801        8.86346
H          8.92572        1.36313        8.60746
