85
*****
C          2.60032       -9.73739        4.43620
Si         2.19667       -8.64387        2.97740
C          0.49939       -9.08756        2.27459
C          1.93054       -6.64960        3.80755
C          0.87327       -6.83924        4.93109
C          3.31893       -6.13456        4.36003
C          4.21515       -5.47784        3.29878
C          3.16757       -5.12574        5.51087
C          1.33128       -5.75395        2.70010
N          3.39487       -8.53916        1.71912
C          4.74295       -8.83732        1.78529
C          5.56582       -9.25553        2.85237
C          6.91880       -9.49816        2.62327
C          7.45750       -9.33282        1.35893
C          6.65492       -8.90520        0.29324
Br         7.51546       -8.73785       -1.38705
C          5.27397       -8.63379        0.48983
C          4.19217       -8.15820       -0.33553
C          4.19077       -7.72734       -1.77675
C          4.65052       -6.26478       -2.01522
N          4.44563       -5.85424       -3.41046
C          3.11713       -5.40296       -3.83007
C          2.38354       -4.56425       -2.79828
C          2.95408       -4.46775       -1.44060
C          3.97926       -5.26023       -1.10883
O          1.31312       -4.00904       -3.03910
C          3.05925       -8.14249        0.45690
C          5.39173       -6.23810       -4.34572
O          4.99485       -5.98866       -5.62247
C          5.92483       -6.38520       -6.65158
C          5.83103       -7.89018       -6.93468
C          6.99445       -8.39609       -7.77817
C          8.34668       -8.38088       -7.47064
C          9.23872       -8.91461       -8.40218
C          8.77450       -9.45737       -9.61185
C          7.40815       -9.48131       -9.90967
C          6.52163       -8.95213       -8.98624
C          5.07784       -8.85569       -9.01366
C          4.63683       -8.23829       -7.82250
C          3.28810       -8.02957       -7.57625
C          2.37060       -8.43794       -8.54599
C          2.80516       -9.04721       -9.73461
C          4.16610       -9.26116       -9.97448
O          6.45931       -6.76598       -4.06401
H          1.78906       -9.71560        5.13355
H          3.49000       -9.38217        4.91285
H          2.75320      -10.74101        4.09814
H         -0.21281       -9.14402        3.07113
H          0.55515      -10.03383        1.77825
H          0.19488       -8.33603        1.57647
H          1.28013       -7.45874        5.70282
H         -0.00032       -7.30404        4.52401
H          0.61219       -5.88548        5.33983
H          3.78567       -7.03299        4.70625
H          3.75312       -4.57844        2.94878
H          4.34979       -6.15205        2.47889
H          5.16668       -5.24570        3.72961
H          2.69969       -4.23549        5.14556
H          4.13333       -4.88557        5.90397
H          2.56437       -5.55427        6.28380
H          0.39694       -6.16325        2.37702
H          2.00719       -5.71062        1.87174
H          1.17477       -4.76780        3.08468
H          5.16830       -9.38094        3.79644
H          7.52353       -9.80332        3.40186
H          8.45869       -9.52617        1.20001
H          3.19492       -7.82973       -2.15452
H          4.89773       -8.35292       -2.28048
H          5.69490       -6.26713       -1.78251
H          2.52240       -6.26655       -4.04321
H          3.26390       -4.77571       -4.68442
H          2.56754       -3.79831       -0.75689
H          4.34440       -5.17789       -0.14711
H          2.11294       -7.87424        0.14458
H          6.91901       -6.15147       -6.33241
H          5.68240       -5.85595       -7.54937
H          5.78639       -8.32335       -5.95730
H          8.68375       -7.98627       -6.57862
H         10.25071       -8.91044       -8.19996
H          9.45035       -9.84341      -10.28950
H          7.06828       -9.88399      -10.79700
H          2.97149       -7.58476       -6.70050
H          1.36153       -8.29047       -8.38772
H          2.11126       -9.34071      -10.43986
H          4.48393       -9.71081      -10.84731
