77
*****
C          5.32391      -11.96465       -2.65951
Si         6.29679      -10.58853       -1.82087
C          6.21481      -10.74696        0.03735
C          8.35039      -10.89417       -2.44548
C          9.23942       -9.91417       -1.64885
C          8.74412      -12.41081       -2.24591
C          9.98157      -12.81767       -3.06517
C          9.00838      -12.81193       -0.78810
C          8.37662      -10.48821       -3.94604
N          5.83770       -9.00588       -2.40452
C          6.06671       -7.77917       -1.81039
C          6.71149       -7.41792       -0.60844
C          6.81051       -6.07186       -0.26028
C          6.28647       -5.09119       -1.08606
C          5.64905       -5.43643       -2.28488
Br         4.98830       -3.99676       -3.33224
C          5.52350       -6.79891       -2.67070
C          4.95512       -7.49912       -3.79557
C          4.27100       -6.94387       -5.01128
C          5.26089       -6.50109       -6.11208
N          5.93013       -7.68316       -6.72045
C          5.17066       -8.39132       -7.77187
C          4.67324       -7.45366       -8.84433
C          4.31038       -6.08030       -8.43118
C          4.56596       -5.68686       -7.17690
O          4.51254       -7.79335      -10.01317
C          5.16194       -8.84793       -3.58036
S          7.61626       -7.67223       -6.84111
C          7.91409       -6.58390       -8.22445
C          8.06807       -5.21159       -8.00214
C          8.30126       -4.34633       -9.08164
C          8.46207       -2.86228       -8.84146
F          7.55073       -2.38019       -7.95154
F          9.68560       -2.54748       -8.34004
F          8.31055       -2.11636       -9.96988
C          8.40884       -4.88791      -10.37508
C          8.27917       -6.27087      -10.60315
C          8.42586       -6.82417      -12.00390
F          7.68465       -6.13547      -12.91440
F          9.71212       -6.76205      -12.44455
F          8.05100       -8.12656      -12.11754
C          8.04159       -7.11831       -9.51137
O          8.16922       -7.02739       -5.67095
O          8.04942       -8.99418       -7.23958
H          5.63810      -12.91106       -2.27159
H          5.50106      -11.93495       -3.71433
H          4.27958      -11.83014       -2.46931
H          6.50707      -11.73547        0.32426
H          5.21411      -10.56097        0.36736
H          6.87626      -10.03525        0.48551
H          9.22894      -10.18417       -0.61352
H          8.86309       -8.91891       -1.76172
H         10.24214       -9.96049       -2.01939
H          7.87546      -12.92985       -2.59363
H         10.83856      -12.28907       -2.70316
H          9.82246      -12.57619       -4.09535
H         10.14412      -13.87065       -2.96665
H          9.87574      -12.29875       -0.42860
H          9.17028      -13.86815       -0.73254
H          8.16335      -12.54851       -0.18691
H          8.10540       -9.45756       -4.04149
H          7.68138      -11.09193       -4.49107
H          9.36114      -10.63574       -4.33828
H          7.10680       -8.14485        0.00827
H          7.27803       -5.80383        0.61985
H          6.36619       -4.09831       -0.81614
H          3.68724       -6.09682       -4.71695
H          3.66446       -7.72411       -5.42144
H          6.00429       -5.88296       -5.65364
H          4.33022       -8.87727       -7.32197
H          5.82829       -9.09850       -8.23265
H          3.86580       -5.43347       -9.10124
H          4.25896       -4.73752       -6.91323
H          4.85617       -9.61026       -4.20516
H          8.01010       -4.83511       -7.04301
H          8.58649       -4.25849      -11.17338
H          7.96073       -8.13676       -9.65714
