65
*****
C         10.41947       -4.91159        5.54987
C         11.93494       -4.76597        5.50869
Si        12.59555       -3.07606        6.17227
C         12.21783       -2.93604        8.01154
C         12.64895       -4.09906        8.89514
C         14.50574       -3.10413        5.88839
C         15.20828       -4.42911        6.14377
N         11.94780       -1.81103        5.14693
C         11.27531       -0.65344        5.48905
C         10.91957       -0.10268        6.73789
C         10.22150        1.10068        6.79149
C          9.87235        1.75990        5.62734
C         10.22158        1.23232        4.37480
I          9.58950        2.36973        2.72924
C         10.94427        0.00754        4.27913
C         11.47693       -0.80226        3.20745
C         11.44000       -0.58758        1.72017
C         12.53321        0.37588        1.20774
N         13.90043       -0.21433        1.37398
C         14.27831       -1.17856        0.30790
C         14.07984       -0.64246       -1.08757
C         12.99622        0.34365       -1.28857
C         12.28759        0.76001       -0.23141
O         14.69476       -1.06716       -2.06287
C         12.07820       -1.90010        3.79056
O         15.05143        2.00525        0.85937
S         15.13922        0.88868        1.77600
C         14.67197        1.44988        3.39617
C         14.91803        0.62288        4.49580
C         14.57739        1.06146        5.77449
C         13.99913        2.31960        5.94944
C         13.77220        3.14963        4.85015
C         14.11804        2.72167        3.56864
O         16.37248        0.14586        1.92772
H         10.14284       -5.87142        5.16632
H          9.97120       -4.14584        4.95189
H         10.07967       -4.81982        6.56032
H         12.25359       -4.87378        4.49294
H         12.33102       -5.52212        6.15387
H         11.15866       -2.82609        8.11632
H         12.79319       -2.10024        8.35107
H         12.11115       -4.97995        8.61282
H         12.43996       -3.86617        9.91836
H         13.69866       -4.26820        8.77507
H         14.94205       -2.37393        6.53749
H         14.64094       -2.90721        4.84539
H         15.11243       -4.69030        7.17697
H         16.24460       -4.33734        5.89374
H         14.76194       -5.19163        5.54024
H         11.17625       -0.59078        7.61019
H          9.96300        1.50320        7.70592
H          9.34996        2.64835        5.68008
H         10.48393       -0.18351        1.46025
H         11.61838       -1.53756        1.26124
H         12.48432        1.26426        1.80211
H         13.68066       -2.05893        0.42044
H         15.32312       -1.37933        0.42174
H         12.78868        0.70650       -2.23212
H         11.50157        1.40231       -0.41753
H         12.55011       -2.66476        3.28300
H         15.34864       -0.30542        4.36211
H         14.75277        0.45593        6.59156
H         13.73808        2.63778        6.89583
H         13.34820        4.08066        4.98591
H         13.96639        3.33828        2.75512
