73
*****
C          9.67166       -0.76836        8.75782
Si         9.21726        0.61063        7.56337
C          7.96132        1.77620        8.44595
C          8.07198        2.02459        9.82811
C          7.16480        2.86585       10.47666
C          6.13464        3.46913        9.76031
C          6.00920        3.23322        8.39387
C          6.91340        2.39350        7.73877
C         10.74045        1.70798        7.23545
C         11.84402        1.15530        6.55373
C         12.98314        1.92071        6.29275
C         13.04374        3.24770        6.70748
C         11.96514        3.81177        7.38274
C         10.82265        3.05079        7.64636
N          8.49746       -0.01796        6.09934
C          8.41866        0.59126        4.85978
C          8.84023        1.86338        4.41659
C          8.65429        2.22194        3.08511
C          8.05780        1.34138        2.19923
C          7.62323        0.07634        2.62750
I          6.73968       -1.11247        1.14178
C          7.79059       -0.32500        3.98418
C          7.47233       -1.49346        4.77328
C          6.81027       -2.77950        4.36856
C          7.79955       -3.80661        3.77473
N          8.71197       -4.32885        4.82910
C          8.18569       -5.43218        5.65923
C          7.59898       -6.55523        4.84271
C          6.98620       -6.20419        3.54379
C          7.07000       -4.94356        3.10034
O          7.55380       -7.71786        5.23598
C          7.90210       -1.24523        6.06312
S         10.37509       -4.30293        4.51536
C         10.57937       -5.60061        3.31172
C         10.53968       -5.29211        1.94898
C         10.69365       -6.31143        1.00740
C         10.89760       -7.63995        1.41810
C         11.07354       -8.73221        0.38859
F         10.20633       -8.61126       -0.65547
F         12.31979       -8.73336       -0.15776
F         10.87976       -9.98389        0.88844
C         10.97237       -7.92514        2.79149
C         10.82139       -6.90917        3.73784
O         10.70180       -3.05333        3.86321
O         11.06902       -4.71197        5.71784
H         10.10807       -0.34726        9.63936
H         10.37440       -1.42691        8.29159
H          8.79111       -1.31572        9.02228
H          8.83146        1.58028       10.36737
H          7.25843        3.04062       11.48944
H          5.46522        4.09007       10.24127
H          5.24546        3.68031        7.86298
H          6.81158        2.22432        6.72583
H         11.80976        0.17171        6.24325
H         13.78154        1.50110        5.79124
H         13.88605        3.81202        6.51492
H         12.00914        4.79597        7.69005
H         10.02959        3.47943        8.14870
H          9.28318        2.52278        5.07539
H          8.96299        3.15007        2.75601
H          7.93096        1.61751        1.21298
H          6.06293       -2.56197        3.63435
H          6.38877       -3.21407        5.25082
H          8.38528       -3.30337        3.03408
H          7.42310       -5.04249        6.30071
H          9.00699       -5.83509        6.21423
H          6.49943       -6.92260        2.98526
H          6.58992       -4.72844        2.21250
H          7.79101       -1.88313        6.86672
H         10.39754       -4.31747        1.64092
H         10.65737       -6.08731        0.00069
H         11.14039       -8.89420        3.10407
H         10.88814       -7.12348        4.74514
