79
*****
Si         9.64438       -3.97841        5.37705
C         10.09771       -3.26320        7.07709
C          9.11384       -2.45349        7.94537
C          7.88826       -3.23840        8.39979
C          9.85648       -1.92412        9.18069
C          8.88092       -5.73751        5.47756
C          7.47207       -5.96001        6.05435
C          6.35832       -5.30643        5.23619
C          7.19804       -7.46674        6.15530
C         11.39223       -4.31657        4.44067
C         12.60577       -4.69675        5.30836
C         12.49563       -6.09515        5.91704
C         13.87532       -4.62069        4.45221
N          8.80633       -2.90426        4.28110
C          8.29455       -3.20910        3.03223
C          8.37454       -4.37976        2.24840
C          7.69070       -4.44434        1.03868
C          6.93330       -3.37013        0.60629
C          6.86968       -2.18592        1.35888
I          5.65582       -0.68633        0.55342
C          7.58509       -2.06879        2.58401
C          7.83195       -1.02864        3.55482
C          7.39674        0.41150        3.58718
C          8.28487        1.39215        2.77754
N          7.92795        2.79195        3.05426
C          8.47219        3.43847        4.25125
C          9.90951        3.06572        4.56886
C         10.53132        1.96466        3.80828
C          9.76595        1.21292        3.00930
O         10.54955        3.61125        5.46581
C          8.63354       -1.57978        4.53947
C          6.84347        3.33141        2.38629
O          6.48252        4.54826        2.87218
C          5.37905        5.20738        2.20987
C          5.83982        6.31160        1.24213
Cl         6.82563        5.66674       -0.10206
Cl         4.39947        7.12950        0.54846
Cl         6.80860        7.54280        2.11998
O          6.25749        2.77901        1.46655
H         10.93810       -2.62210        6.91083
H         10.20666       -4.15493        7.65833
H          8.75028       -1.65844        7.32843
H          8.19641       -4.05092        9.02409
H          7.37275       -3.62170        7.54409
H          7.23553       -2.59342        8.95010
H         10.20271       -2.74810        9.76898
H          9.19239       -1.32251        9.76545
H         10.69185       -1.33287        8.86847
H          9.54891       -6.32513        6.07203
H          8.75638       -5.99827        4.44733
H          7.46224       -5.49302        7.01701
H          6.32938       -5.74355        4.25998
H          6.54707       -4.25662        5.15145
H          5.41897       -5.46165        5.72448
H          7.21553       -7.89880        5.17657
H          6.23704       -7.62560        6.59818
H          7.95050       -7.92628        6.76154
H         11.64720       -3.42458        3.90752
H         11.21207       -5.17929        3.83392
H         12.64198       -4.00247        6.12173
H         12.45651       -6.82302        5.13372
H         11.60534       -6.15814        6.50722
H         13.34794       -6.28283        6.53609
H         13.80724       -5.32544        3.64996
H         14.72766       -4.85001        5.05704
H         13.97708       -3.63354        4.05210
H          8.93679       -5.18295        2.57056
H          7.74858       -5.29753        0.46098
H          6.40886       -3.43987       -0.27978
H          7.39498        0.73318        4.60768
H          6.43129        0.43863        3.12668
H          8.08824        1.15401        1.75308
H          7.86289        3.16275        5.08649
H          8.46584        4.49097        4.05860
H         11.54272        1.77718        3.89163
H         10.22975        0.44065        2.50579
H          9.03545       -1.06832        5.34066
H          4.74659        5.64597        2.95320
H          4.86084        4.46925        1.63409
