58
*****
C         11.91231        5.11702       -2.04961
Si        10.20028        5.58736       -1.42052
C         10.11582        5.05526        0.38504
C         10.00101        7.44649       -1.51893
N          8.98518        4.73618       -2.33944
C          8.83945        3.36759       -2.46256
C          9.58399        2.29392       -1.92829
C          9.20521        0.98603       -2.22225
C          8.10865        0.73779       -3.03105
C          7.36188        1.79583       -3.56844
Br         5.88794        1.30342       -4.65763
C          7.71706        3.14505       -3.29197
C          7.20429        4.44532       -3.65279
C          6.02653        4.81281       -4.51015
C          4.78286        5.24905       -3.69780
N          3.73525        5.80271       -4.56502
C          2.79898        4.89155       -5.21915
C          2.33041        3.74611       -4.34011
C          3.08101        3.46745       -3.09892
C          4.20414        4.14877       -2.84468
O          1.40569        3.00069       -4.65856
C          8.02005        5.38572       -3.04979
O          3.08816        7.52351       -5.94971
C          3.83011        7.08785       -5.07985
O          4.84861        7.78980       -4.52013
C          5.14796        9.14610       -4.93854
C          3.98468       10.09449       -4.63108
C          6.35628        9.55514       -4.08176
C          5.55764        9.19610       -6.41451
H         12.65582        5.63984       -1.48503
H         11.99769        5.38147       -3.08289
H         12.05595        4.06257       -1.93827
H         10.86162        5.57839        0.94630
H         10.29033        4.00191        0.45499
H          9.14754        5.28331        0.77916
H         10.76774        7.91848       -0.94079
H          9.04208        7.72332       -1.13330
H         10.07934        7.76010       -2.53894
H         10.40149        2.47625       -1.32540
H          9.74535        0.19667       -1.83472
H          7.83845       -0.23597       -3.24032
H          5.76195        3.96312       -5.10422
H          6.32149        5.65004       -5.10761
H          5.13657        6.01240       -3.03668
H          3.27945        4.47836       -6.08131
H          1.93059        5.46639       -5.46485
H          2.74249        2.75422       -2.43429
H          4.72099        3.89857       -1.98719
H          7.91529        6.40961       -3.12524
H          3.73370       10.02633       -3.59317
H          3.13568        9.82088       -5.22205
H          4.27222       11.09863       -4.86330
H          6.08616        9.52527       -3.04685
H          6.65903       10.54764       -4.34286
H          7.16501        8.87731       -4.25900
H          4.72582        8.91346       -7.02531
H          6.36955        8.51970       -6.58241
H          5.86358       10.19004       -6.66627
