75
*****
Si         9.80162       -4.33330        5.14775
C         10.51682       -3.20012        6.51956
C         11.69437       -2.26648        6.15995
C         11.59592       -0.96902        6.97144
C         13.05196       -2.91721        6.43016
C          8.47951       -5.48560        5.92695
C          7.08598       -4.98036        6.35304
C          7.11742       -3.83503        7.36333
C          6.16577       -4.63664        5.18238
C         11.20405       -5.47335        4.43723
C         11.95635       -6.39789        5.41688
C         11.23124       -7.72905        5.63719
C         13.35771       -6.69772        4.86798
N          9.10827       -3.43689        3.81490
C          8.58821       -3.95764        2.64541
C          8.39196       -5.28588        2.20991
C          7.85816       -5.51812        0.94360
C          7.52482       -4.45853        0.11548
C          7.70552       -3.13628        0.54262
Br         7.22039       -1.77581       -0.69011
C          8.23157       -2.85975        1.83423
C          8.51963       -1.65982        2.58963
C          8.32427       -0.23731        2.12931
C          8.52916        0.87773        3.18408
N          8.68643        2.19944        2.55162
C          7.47891        2.91935        2.12657
C          6.31135        2.81231        3.09398
C          6.39119        1.81391        4.17771
C          7.40187        0.93716        4.18620
O          5.29010        3.48464        2.96966
C          9.03800       -2.07323        3.80265
O         10.93042        1.78911        2.28416
C          9.96543        2.52968        2.05822
C         10.12642        3.83704        1.24344
F          9.84405        4.94222        1.98925
F         11.38257        4.01494        0.75204
F          9.28649        3.87557        0.16940
H         10.84785       -3.83546        7.31434
H          9.71414       -2.53308        6.75548
H         11.62593       -2.06150        5.11200
H         11.66632       -1.19480        8.01497
H         10.65827       -0.49377        6.77182
H         12.39446       -0.31319        6.69374
H         13.14313       -3.13173        7.47446
H         13.83318       -2.24880        6.13382
H         13.12929       -3.82634        5.87122
H          8.92718       -5.89903        6.80648
H          8.23784       -6.12794        5.10604
H          6.66433       -5.82783        6.85193
H          7.53424       -2.96407        6.90226
H          7.71826       -4.11634        8.20283
H          6.12178       -3.62242        7.69257
H          6.55711       -3.79022        4.65768
H          5.18861       -4.40628        5.55252
H          6.10727       -5.47277        4.51728
H         11.93151       -4.83499        3.98094
H         10.69313       -6.14386        3.77822
H         12.00913       -5.88428        6.35407
H         11.16821       -8.25865        4.70958
H         10.24541       -7.54106        6.00826
H         11.77358       -8.31732        6.34762
H         13.27226       -7.21033        3.93266
H         13.88952       -7.31210        5.56413
H         13.88846       -5.77979        4.72443
H          8.64135       -6.07745        2.82331
H          7.71002       -6.48689        0.62024
H          7.14020       -4.64470       -0.82390
H          7.32366       -0.15219        1.75994
H          9.08998       -0.07379        1.40003
H          9.42948        0.62575        3.70448
H          7.16841        2.52378        1.18210
H          7.74190        3.95541        2.07849
H          5.67541        1.79217        4.92082
H          7.41159        0.23891        4.94605
H          9.32554       -1.45148        4.57452
