66
*****
Si         9.95862       -4.10357        5.09474
C         10.62297       -2.53648        6.09101
C         11.84435       -2.81899        6.97371
C         10.93478       -1.33949        5.17868
C          8.82505       -5.17819        6.34315
C          8.41848       -6.52224        5.72427
C          9.42505       -5.37533        7.73545
C         11.41267       -5.18638        4.37579
C         12.40029       -4.37793        3.51982
C         12.19462       -6.00328        5.41063
N          8.84986       -3.57827        3.82697
C          7.75687       -2.74395        3.97105
C          7.22023       -2.08839        5.10033
C          6.08620       -1.29385        4.95896
C          5.47858       -1.15397        3.72315
C          5.99468       -1.80722        2.59247
I          4.90430       -1.52451        0.82058
C          7.16297       -2.61712        2.69468
C          7.95625       -3.41673        1.78214
C          7.73112       -3.61259        0.30400
C          8.88436       -4.25538       -0.50644
N          8.44211       -4.64836       -1.85651
C          8.37796       -3.61580       -2.89947
C          9.52457       -2.61836       -2.86895
C         10.40809       -2.60572       -1.68736
C         10.08589       -3.34874       -0.62242
O          9.70400       -1.79458       -3.76314
C          8.94070       -4.02331        2.54061
O          7.67412       -6.64087       -1.01143
C          7.76129       -5.87675       -1.98050
C          7.14191       -6.24085       -3.35281
F          8.08975       -6.36946       -4.32361
F          6.44571       -7.40959       -3.33726
F          6.27365       -5.28414       -3.79038
H          9.80570       -2.28974        6.73607
H         12.68092       -3.06960        6.35546
H         11.62864       -3.63590        7.63024
H         12.07586       -1.94864        7.55146
H         11.75204       -1.58611        4.53357
H         11.19656       -0.49276        5.77820
H         10.07282       -1.10631        4.58915
H          7.94592       -4.58648        6.49122
H          9.29067       -7.12296        5.57156
H          7.93463       -6.35080        4.78544
H          7.74666       -7.03014        6.38426
H         10.31525       -5.96418        7.66009
H          8.71707       -5.87759        8.36108
H          9.66273       -4.42218        8.15962
H         10.89315       -5.88595        3.75482
H         12.92016       -3.67814        4.14025
H         11.86396       -3.85030        2.75899
H         13.10439       -5.04244        3.06424
H         12.73197       -5.34039        6.05617
H         12.88435       -6.64881        4.90818
H         11.51336       -6.59085        5.98989
H          7.66589       -2.19758        6.02471
H          5.69604       -0.80608        5.78048
H          4.63729       -0.56328        3.63184
H          7.53452       -2.65106       -0.12227
H          6.92314       -4.31087        0.23721
H          9.17400       -5.12805        0.04079
H          7.46191       -3.07599       -2.77970
H          8.44276       -4.12598       -3.83778
H         11.26478       -2.03033       -1.68239
H         10.71566       -3.29747        0.19353
H          9.63300       -4.70352        2.18980
