72
*****
Si         6.92926        2.28320        3.07299
C          6.34343        1.50563        4.73083
C          6.28230        2.25675        5.91803
C          5.88022        1.66874        7.12064
C          5.54440        0.31903        7.16337
C          5.61902       -0.44833        6.00548
C          6.02197        0.13507        4.80160
C          8.83521        2.47768        3.27029
C          9.54338        1.77903        4.26630
C         10.92988        1.90952        4.38756
C         11.63608        2.73242        3.51546
C         10.95791        3.42412        2.51720
C          9.57214        3.29587        2.39241
C          6.05629        4.17987        2.83776
C          6.88443        5.24682        3.58806
C          6.02471        4.53153        1.33134
C          4.61126        4.19590        3.37718
N          6.50110        1.29538        1.68766
C          5.25231        0.80114        1.35327
C          4.01313        0.86190        2.02539
C          2.88381        0.30124        1.43706
C          2.97229       -0.31794        0.20243
C          4.20319       -0.41162       -0.46703
I          4.13771       -1.39107       -2.32059
C          5.38370        0.13896        0.10991
C          6.78525        0.19289       -0.23655
C          7.51236       -0.40298       -1.40964
C          7.56782        0.52899       -2.64072
N          8.45641        1.71068       -2.38123
C          9.90912        1.41473       -2.49933
C         10.28824        0.68891       -3.76679
C          9.25426       -0.14526       -4.41479
C          8.03520       -0.21825       -3.86550
O         11.43165        0.69663       -4.21650
C          7.42487        0.90002        0.76390
O          6.50962        3.27825       -2.85987
S          7.93559        3.17459       -3.12041
C          8.82810        4.52599       -2.18632
F          8.83274        4.29534       -0.84146
F         10.13527        4.63065       -2.56090
F          8.26354        5.75015       -2.37782
O          8.40293        3.11051       -4.49415
H          6.53796        3.25644        5.90115
H          5.83223        2.23781        7.98022
H          5.24103       -0.11120        8.05101
H          5.37617       -1.45089        6.03578
H          6.08521       -0.44630        3.95129
H          9.03174        1.16180        4.91612
H         11.43185        1.39342        5.12695
H         12.65927        2.82916        3.60899
H         11.47931        4.03323        1.86746
H          9.08042        3.80935        1.64437
H          7.88904        5.24253        3.21978
H          6.88732        5.02498        4.63480
H          6.45044        6.21187        3.42920
H          7.02151        4.52436        0.94244
H          5.59798        5.50405        1.20097
H          5.43280        3.80935        0.80883
H          4.61695        3.95416        4.41950
H          4.02464        3.47497        2.84704
H          4.18982        5.16967        3.23918
H          3.94487        1.31948        2.94787
H          1.97509        0.34732        1.92402
H          2.12419       -0.71523       -0.23106
H          7.01512       -1.30737       -1.69205
H          8.52205       -0.57379       -1.09940
H          6.57541        0.88569       -2.82179
H         10.19759        0.80887       -1.66589
H         10.41562        2.35703       -2.51975
H          9.46924       -0.66507       -5.28001
H          7.35241       -0.84316       -4.32191
H          8.43700        1.09718        0.80573
