68
*****
C         14.01975       -1.90055       -4.86623
C         14.27241       -3.11485       -3.98085
Si        12.72748       -4.09555       -3.46810
C         11.73282       -4.57760       -5.03231
C         12.53379       -5.28753       -6.11701
C         13.30014       -5.74730       -2.66054
C         14.04748       -5.58740       -1.34324
N         11.71810       -3.24937       -2.32072
C         10.48478       -3.64298       -1.84025
C          9.71297       -4.80027       -2.07734
C          8.46920       -4.93114       -1.46586
C          7.99352       -3.93968       -0.62444
C          8.75911       -2.79159       -0.36459
I          7.89062       -1.41435        0.96061
C         10.03705       -2.62161       -0.97172
C         11.08595       -1.61987       -0.92402
C         11.09100       -0.34555       -0.12088
C         12.29902        0.61080       -0.28141
N         12.35121        1.22549       -1.63712
C         11.34171        2.28098       -1.89115
C         11.32134        3.33966       -0.81319
C         11.78283        2.95492        0.54108
C         12.21362        1.70508        0.75900
O         10.90233        4.47874       -1.00278
C         12.10447       -2.08024       -1.73438
S         13.86941        1.42107       -2.37134
C         14.61136        2.78420       -1.49765
C         15.44918        2.53240       -0.40727
C         16.05472        3.60019        0.25830
C         15.83587        4.92226       -0.16387
C         16.51047        6.07662        0.54066
F         16.81629        5.80220        1.83981
F         17.68167        6.43246       -0.05342
F         15.74480        7.20217        0.57012
C         15.01919        5.15420       -1.28322
C         14.41495        4.08987       -1.95552
O         14.67265        0.25090       -2.08560
O         13.65622        1.85256       -3.73618
H         14.95092       -1.42510       -5.09375
H         13.38325       -1.21077       -4.35244
H         13.54768       -2.21316       -5.77415
H         14.75807       -2.77657       -3.08945
H         14.86301       -3.78655       -4.56814
H         11.32492       -3.68281       -5.45406
H         10.98882       -5.27489       -4.70804
H         13.29819       -4.63358       -6.48163
H         11.88257       -5.55852       -6.92160
H         12.98304       -6.16898       -5.70943
H         13.94545       -6.24935       -3.35077
H         12.41054       -6.29854       -2.43774
H         14.95121       -5.03938       -1.51012
H         14.28384       -6.55313       -0.94776
H         13.43246       -5.05736       -0.64631
H         10.06771       -5.54369       -2.69904
H          7.89796       -5.77263       -1.64084
H          7.06645       -4.04564       -0.18360
H         11.03775       -0.62021        0.91189
H         10.25807        0.21072       -0.49729
H         13.19028        0.03362       -0.14947
H         10.37500        1.82509       -1.94158
H         11.60096        2.76151       -2.81136
H         11.77256        3.64348        1.30972
H         12.51251        1.46909        1.71817
H         13.01422       -1.61354       -1.87430
H         15.61911        1.56321       -0.09610
H         16.66842        3.41664        1.06744
H         14.86438        6.12021       -1.61168
H         13.82712        4.26633       -2.78518
