83
*****
Si        10.38610       -3.80575        4.68001
C         10.62883       -3.04347        6.43965
C         11.60912       -1.86561        6.62094
C         11.14617       -0.57028        5.95304
C         11.82063       -1.61027        8.11848
C          9.07467       -5.46737        4.99138
C          7.82619       -4.97670        5.75860
C          8.62873       -6.03039        3.62650
C          9.77924       -6.54772        5.83062
C         12.24587       -4.53127        4.04325
C         13.03255       -5.07337        5.26265
C         12.11114       -5.66104        3.00463
C         13.06444       -3.37180        3.42474
N          9.57527       -2.77308        3.51537
C          8.55410       -1.86322        3.74515
C          7.84626       -1.50764        4.91341
C          6.86314       -0.52223        4.86061
C          6.57024        0.10959        3.66645
C          7.24934       -0.23930        2.49228
Br         6.73173        0.70653        0.93062
C          8.25808       -1.24399        2.50744
C          9.12460       -1.84520        1.52483
C          9.22788       -1.57969        0.04768
C         10.37311       -0.64309       -0.40353
N         10.22758        0.73215        0.13678
C         10.91126        1.02689        1.41600
C         12.32435        0.51203        1.49092
C         12.67298       -0.66476        0.67011
C         11.75635       -1.18735       -0.15255
O         13.17125        0.98587        2.24547
C          9.86580       -2.80854        2.18269
O          9.78872        3.21789       -0.26293
S         10.09094        1.99824       -0.98037
C         11.74800        2.15070       -1.61652
C         12.09919        1.49624       -2.80171
C         13.39587        1.62441       -3.29922
C         14.32863        2.41222       -2.62291
C         13.96637        3.08467       -1.45466
C         12.67078        2.96485       -0.95266
O          9.24813        1.54559       -2.06778
H         10.96677       -3.83263        7.07834
H          9.67396       -2.61714        6.66630
H         12.52125       -2.15090        6.13976
H         10.23200       -0.24385        6.40320
H         10.98757       -0.74412        4.90924
H         11.89499        0.18353        6.07934
H         10.89108       -1.32791        8.56693
H         12.53329       -0.82286        8.24888
H         12.18508       -2.50193        8.58434
H          7.32740       -4.22430        5.18414
H          8.12483       -4.56663        6.70071
H          7.16190       -5.79941        5.92219
H          8.14287       -5.26029        3.06455
H          7.94913       -6.84238        3.78045
H          9.48483       -6.37908        3.08759
H         10.07751       -6.13139        6.77010
H         10.64292       -6.89983        5.30624
H          9.10723       -7.36314        5.99910
H         12.48715       -5.87800        5.70989
H         13.16396       -4.28979        5.97933
H         13.98991       -5.42678        4.94101
H         11.54616       -6.46657        3.42512
H         13.08423       -6.01235        2.73151
H         11.60947       -5.28891        2.13587
H         13.16234       -2.58272        4.14075
H         12.56098       -3.00396        2.55519
H         14.03574       -3.72740        3.15083
H          8.05726       -1.97808        5.80738
H          6.35055       -0.26240        5.71779
H          5.84565        0.84396        3.63996
H          8.30471       -1.14168       -0.26981
H          9.44401       -2.52836       -0.39753
H         10.27072       -0.59092       -1.46734
H         10.34834        0.57989        2.20860
H         10.96638        2.09232        1.49798
H         13.61556       -1.08059        0.73044
H         12.02128       -2.04393       -0.66354
H         10.53505       -3.45435        1.73541
H         11.40394        0.92269       -3.30440
H         13.66572        1.13658       -4.16768
H         15.29005        2.49789       -2.98810
H         14.65795        3.67111       -0.96188
H         12.39526        3.47314       -0.09782
