84
*****
C          8.94408        3.74067       -4.01701
Si         8.59341        3.57112       -5.86152
C          8.07661        5.29613       -6.51976
C          8.68757        6.46361       -6.02625
C          8.31002        7.72155       -6.50249
C          7.32387        7.83409       -7.47912
C          6.71600        6.68896       -7.98647
C          7.08979        5.42840       -7.51530
C         10.17582        3.16673       -6.82910
C         11.28673        2.58697       -6.18925
C         12.44667        2.28271       -6.90705
C         12.51620        2.54700       -8.27225
C         11.42543        3.11450       -8.92415
C         10.26396        3.42124       -8.21124
N          7.33386        2.38247       -6.07226
C          6.00929        2.50216       -5.69635
C          5.31985        3.55609       -5.05749
C          3.95113        3.44398       -4.84177
C          3.26815        2.31663       -5.26407
C          3.94312        1.25585       -5.89388
I          2.70042       -0.30315       -6.54873
C          5.35308        1.31444       -6.09737
C          6.38189        0.43903       -6.62186
C          6.30500       -0.98715       -7.09155
C          7.22742       -1.95294       -6.30532
N          6.97158       -1.98056       -4.86201
C          5.73080       -2.61071       -4.40852
C          5.60429       -4.01303       -4.98630
C          6.37775       -4.33415       -6.21269
C          7.09158       -3.37137       -6.81430
O          4.81621       -4.84531       -4.54166
C          7.56393        1.15855       -6.62402
C          7.99750       -1.65403       -3.99297
O          7.65512       -1.84684       -2.69177
C          8.70791       -1.66964       -1.72290
C          9.58088       -2.92842       -1.63176
C          8.90270       -4.05358       -0.84983
C          7.71118       -4.70578       -1.13018
C          7.29052       -5.71507       -0.26220
C          8.05863       -6.06273        0.86062
C          9.26432       -5.40920        1.13355
C          9.68249       -4.40672        0.27321
C         10.87107       -3.58160        0.29782
C         10.84294       -2.70402       -0.80770
C         11.87976       -1.81539       -1.04949
C         12.95196       -1.79679       -0.15554
C         12.97879       -2.65992        0.95248
C         11.93541       -3.56162        1.18413
O          9.10531       -1.26463       -4.34319
H          9.71546        4.46664       -3.86587
H          9.26127        2.79653       -3.62600
H          8.05454        4.05508       -3.51226
H          9.42209        6.38989       -5.30510
H          8.76347        8.57014       -6.12926
H          7.04406        8.76480       -7.82627
H          5.98734        6.77174       -8.71257
H          6.63772        4.58469       -7.90107
H         11.24456        2.38407       -5.17827
H         13.25466        1.86055       -6.42335
H         13.37451        2.32263       -8.79949
H         11.47474        3.30912       -9.93643
H          9.45974        3.83999       -8.70409
H          5.82742        4.40169       -4.75357
H          3.44214        4.20450       -4.36475
H          2.24897        2.25364       -5.11461
H          6.58482       -1.01832       -8.12384
H          5.29933       -1.31533       -6.93087
H          8.21368       -1.57072       -6.46685
H          4.89806       -2.02074       -4.73007
H          5.74552       -2.67597       -3.34061
H          6.36601       -5.29102       -6.59908
H          7.58396       -3.61561       -7.68775
H          8.47083        0.82296       -6.98446
H          8.27377       -1.47350       -0.76480
H          9.32119       -0.84789       -2.02869
H          9.77121       -3.16759       -2.65717
H          7.15043       -4.45171       -1.95845
H          6.40492       -6.21129       -0.44794
H          7.72934       -6.80962        1.49208
H          9.82994       -5.66766        1.95714
H         11.85935       -1.18579       -1.86694
H         13.73389       -1.14135       -0.31051
H         13.77869       -2.62813        1.60378
H         11.95781       -4.19752        1.99663
