71
*****
Si         9.10591        5.34381        5.88237
C          8.67436        4.94597        7.72374
C          9.39375        5.53777        8.77984
C          9.08798        5.23850       10.10941
C          8.06135        4.34698       10.40733
C          7.33913        3.75181        9.37670
C          7.64115        4.04571        8.04463
C         10.97042        4.82582        5.69858
C         11.61876        4.00211        6.63577
C         12.95366        3.62935        6.45426
C         13.65857        4.06139        5.33375
C         13.02739        4.85867        4.38447
C         11.69216        5.22935        4.55730
C          8.95432        7.40012        5.64405
C         10.33028        8.06647        5.90773
C          8.52702        7.73025        4.19813
C          7.95896        8.01906        6.65123
N          8.12706        4.35995        4.80235
C          6.80157        4.49944        4.43319
C          5.80518        5.40861        4.83787
C          4.54057        5.35740        4.25819
C          4.24989        4.40281        3.30128
C          5.21275        3.45769        2.92237
Br         4.64906        2.18754        1.63266
C          6.51544        3.47624        3.49615
C          7.69972        2.65544        3.40042
C          7.95006        1.38886        2.62041
C          8.90344        1.51497        1.40218
N          8.41977        2.39962        0.33559
C          8.71673        3.83626        0.42086
C         10.06542        4.17751        1.03828
C         10.88157        3.07883        1.59116
C         10.31989        1.87728        1.76453
O         10.48606        5.33130        1.10886
C          8.62764        3.20467        4.26484
O          7.17899        0.67650       -0.53260
C          7.47580        1.87759       -0.56748
C          6.85386        2.83250       -1.61622
F          6.33122        3.95815       -1.05076
F          7.77867        3.25882       -2.52345
F          5.84760        2.26323       -2.33413
H         10.15608        6.20061        8.56885
H          9.62451        5.67942       10.87279
H          7.83604        4.12764       11.39026
H          6.57778        3.09102        9.59745
H          7.10089        3.59792        7.28791
H         11.10387        3.66942        7.46597
H         13.41922        3.03084        7.15430
H         14.64650        3.79086        5.20791
H         13.54667        5.17667        3.55126
H         11.22742        5.80684        3.83929
H         11.05567        7.66716        5.23005
H         10.63539        7.86862        6.91405
H         10.24878        9.12322        5.76098
H          9.22415        7.29608        3.51227
H          8.50964        8.79178        4.06491
H          7.55106        7.33175        4.01484
H          8.26704        7.78260        7.64826
H          6.98106        7.62155        6.47635
H          7.93963        9.08158        6.52642
H          6.01237        6.11238        5.56368
H          3.81670        6.03513        4.54407
H          3.31603        4.38610        2.86235
H          7.00654        1.03373        2.26187
H          8.43944        0.72389        3.30101
H          8.90793        0.51881        1.01163
H          7.95418        4.29854        1.01222
H          8.74879        4.19584       -0.58640
H         11.87076        3.23537        1.84022
H         10.90575        1.13689        2.18121
H          9.55600        2.80502        4.47329
