80
*****
Si         9.76712       -4.67292        4.75407
C         11.75683       -4.50050        4.32379
C         12.27974       -3.09698        4.65585
C         12.59612       -5.56898        5.03510
C          9.63790       -4.48910        6.68086
C          9.39441       -3.05713        7.16403
C          8.71407       -5.46947        7.40657
C          9.28630       -6.54588        4.20659
C          7.77508       -6.80494        4.24611
C          9.82297       -6.89903        2.81217
N          8.84587       -3.58472        3.73832
C          7.55127       -3.12669        3.89524
C          6.59783       -3.34960        4.90780
C          5.34258       -2.75576        4.82189
C          5.01493       -1.96882        3.73293
C          5.93870       -1.75946        2.69728
I          5.22403       -0.61958        1.08919
C          7.24181       -2.33206        2.76227
C          8.41064       -2.35056        1.91714
C          8.66731       -1.71035        0.57912
C          9.05596       -0.21463        0.63502
N         10.15674        0.04851        1.60356
C         11.48974       -0.43634        1.16558
C         11.85221        0.06164       -0.21760
C         10.74380        0.44741       -1.12675
C          9.47442        0.28832       -0.72476
O         13.00639        0.06567       -0.63992
C          9.34164       -3.15998        2.54047
S         10.14159        1.56999        2.35830
C         10.42054        1.11603        4.06098
C         11.72112        1.07394        4.57109
C         11.93275        0.77690        5.92600
C         13.33544        0.72122        6.48732
F         14.24722        0.26970        5.58295
F         13.77738        1.93857        6.89966
F         13.44054       -0.10543        7.56435
C         10.81820        0.57642        6.76161
C          9.50591        0.63176        6.25774
C          8.31371        0.46238        7.17258
F          8.61419       -0.20987        8.31868
F          7.79262        1.65593        7.56514
F          7.29253       -0.22571        6.59514
C          9.31707        0.89906        4.89470
O         11.29507        2.31821        1.90975
O          8.81089        2.13391        2.29942
H         11.85829       -4.65866        3.27042
H         12.18596       -2.92091        5.70709
H         11.70911       -2.36768        4.11976
H         13.30887       -3.02346        4.37231
H         12.51625       -5.43863        6.09412
H         13.62016       -5.47290        4.74014
H         12.23751       -6.54088        4.76732
H         10.62804       -4.77349        6.97006
H          8.40803       -2.74968        6.88576
H         10.11198       -2.40243        6.71530
H          9.49302       -3.01834        8.22877
H          7.69606       -5.24611        7.16439
H          8.85744       -5.37918        8.46307
H          8.94270       -6.46871        7.09973
H          9.75667       -7.17823        4.93031
H          7.28718       -6.18009        3.52748
H          7.40072       -6.58365        5.22375
H          7.58307       -7.83181        4.01466
H          9.35770       -6.27106        2.08136
H          9.60310       -7.92327        2.59424
H         10.88213       -6.74889        2.78908
H          6.83008       -3.95267        5.71241
H          4.65235       -2.90329        5.57478
H          4.08178       -1.53111        3.68131
H          7.77754       -1.80052       -0.00832
H          9.50735       -2.22244        0.15841
H          8.18178        0.30794        0.96310
H         11.48124       -1.50626        1.15556
H         12.21871       -0.05962        1.85230
H         10.94862        0.83504       -2.06099
H          8.72772        0.52783       -1.39565
H         10.26856       -3.40513        2.15871
H         12.52509        1.26116        3.95174
H         10.96666        0.38485        7.76475
H          8.36225        0.93598        4.50487
