81
*****
Si         8.92731        5.70971        5.77666
C          8.33936        5.38877        7.59144
C          8.98001        6.01284        8.67932
C          8.55954        5.77595        9.99024
C          7.49778        4.91107       10.23873
C          6.85852        4.27667        9.17763
C          7.27611        4.50817        7.86460
C         10.76621        5.09474        5.73754
C         11.30168        4.28101        6.75209
C         12.62121        3.82642        6.68093
C         13.42272        4.16388        5.59379
C         12.90471        4.94976        4.56878
C         11.58633        5.40625        4.63382
C          8.90658        7.77863        5.49315
C         10.30449        8.36904        5.81020
C          8.56778        8.08453        4.02132
C          7.89556        8.47867        6.42707
N          7.95945        4.79024        4.62741
C          6.60208        4.87983        4.36458
C          5.62338        5.80750        4.77173
C          4.29689        5.63391        4.38267
C          3.92677        4.53674        3.62570
C          4.88152        3.59086        3.23216
Br         4.22142        2.08430        2.28419
C          6.25132        3.75762        3.57632
C          7.46186        3.01466        3.34442
C          7.66961        1.71443        2.61953
C          7.67960        1.79423        1.07638
N          8.64826        2.74256        0.52798
C         10.06685        2.38769        0.55598
C         10.31611        0.95396        0.11191
C          9.15873        0.03350        0.02383
C          7.96649        0.43343        0.48521
O         11.44453        0.51577       -0.10552
C          8.47707        3.69181        3.99272
O          7.01356        4.30948        0.12072
C          8.19370        3.98556        0.12198
O          9.20252        4.79455       -0.29084
C          8.92700        6.13349       -0.77685
C          8.32182        7.00580        0.32649
C         10.30551        6.70061       -1.14866
C          8.05281        6.11008       -2.03551
H          9.77031        6.65343        8.50581
H          9.03741        6.24343       10.77645
H          7.18528        4.74060       11.20739
H          6.07315        3.63289        9.36137
H          6.79917        4.02766        7.08571
H         10.71364        4.01674        7.55795
H         13.00325        3.23788        7.43769
H         14.39882        3.83198        5.54815
H         13.49567        5.19566        3.75926
H         11.20741        5.97923        3.86367
H         11.03729        7.90818        5.18131
H         10.54631        8.18232        6.83565
H         10.29471        9.42413        5.63247
H          9.27391        7.59502        3.38362
H          8.61163        9.14098        3.85738
H          7.58256        7.72999        3.80100
H          8.13999        8.25971        7.44551
H          6.90853        8.12519        6.21324
H          7.93760        9.53619        6.26962
H          5.88858        6.61471        5.35747
H          3.58590        6.32822        4.66096
H          2.94009        4.41445        3.34905
H          6.88270        1.04925        2.90800
H          8.64771        1.38166        2.89787
H          6.70461        2.14424        0.80845
H         10.43076        2.50590        1.55523
H         10.57781        3.03375       -0.12698
H          9.26982       -0.90594       -0.38865
H          7.18490       -0.23845        0.43302
H          9.47079        3.41343        3.99801
H          8.96287        6.99311        1.18311
H          7.35929        6.62369        0.59562
H          8.22039        8.01018       -0.02824
H         10.92825        6.72332       -0.27885
H         10.19136        7.69320       -1.53160
H         10.75703        6.08032       -1.89449
H          7.08784        5.71692       -1.79229
H          8.51297        5.49204       -2.77793
H          7.94730        7.10493       -2.41505
