77
*****
Si        10.02816       -4.59842        5.14398
C         10.45362       -3.34808        6.64595
C         10.72195       -4.03208        7.98657
C         11.59476       -2.39023        6.27778
C          8.72701       -5.91762        5.82284
C          7.83883       -6.50005        4.71208
C          9.35130       -7.07023        6.61796
C         11.64715       -5.44659        4.46663
C         12.59081       -6.00406        5.53834
C         11.36826       -6.54007        3.42355
N          9.26001       -3.58648        3.92225
C          8.08799       -2.86232        4.05750
C          7.16052       -2.75824        5.11660
C          6.05205       -1.92481        4.97833
C          5.86122       -1.19557        3.81629
C          6.77842       -1.28518        2.76088
Br         6.41471       -0.21461        1.23523
C          7.91484       -2.13309        2.86079
C          9.03136       -2.45858        2.01013
C          9.36556       -1.93781        0.64207
C         10.13657       -0.59936        0.68627
N         11.51439       -0.81174        1.20548
C         12.51997       -1.27200        0.22692
C         12.53538       -0.44129       -1.03135
C         11.25903        0.17085       -1.45939
C         10.18195        0.05634       -0.67220
O         13.53265       -0.31082       -1.73639
C          9.82261       -3.35515        2.70218
S         12.04150        0.16044        2.48392
C         12.36155        1.72456        1.69302
C         11.35811        2.69642        1.65132
C         11.61488        3.92528        1.04020
C         12.87321        4.19420        0.47505
C         13.14959        5.53451       -0.16576
F         12.06793        6.03654       -0.82502
F         13.50538        6.48039        0.74551
F         14.15663        5.49587       -1.08161
C         13.88000        3.21800        0.55636
C         13.62984        1.98846        1.16905
O         10.94103        0.36101        3.40126
O         13.31087       -0.35607        2.95015
H          9.55854       -2.77986        6.79032
H         11.61113       -4.62283        7.91391
H          9.89447       -4.66241        8.23731
H         10.84805       -3.28975        8.74680
H         12.49568       -2.94852        6.13097
H         11.73746       -1.68453        7.06931
H         11.34677       -1.86981        5.37636
H          8.12446       -5.34757        6.49876
H          8.44110       -7.07017        4.03597
H          7.36346       -5.70237        4.18045
H          7.09355       -7.13311        5.14648
H          9.96226       -7.66173        5.96853
H          8.57517       -7.68012        7.03095
H          9.95218       -6.67327        7.40933
H         12.15339       -4.62928        3.99692
H         12.12048       -6.82721        6.03445
H         12.81318       -5.23780        6.25129
H         13.49746       -6.33630        5.07736
H         10.86195       -7.35842        3.89137
H         12.29366       -6.88273        3.00988
H         10.75498       -6.14043        2.64312
H          7.30216       -3.29511        5.98650
H          5.36820       -1.85045        5.74765
H          5.03678       -0.58126        3.72712
H          8.45498       -1.79073        0.09976
H          9.99675       -2.65921        0.16658
H          9.61355        0.05765        1.34937
H         12.30190       -2.28607       -0.03581
H         13.48195       -1.17839        0.68599
H         11.19916        0.68054       -2.35474
H          9.29888        0.45432       -1.02833
H         10.69592       -3.77990        2.35296
H         10.43375        2.50710        2.06933
H         10.87388        4.64262        1.00316
H         14.81293        3.41128        0.15972
H         14.37670        1.27927        1.23449
