59
*****
C          2.25304       -0.92306       12.01991
Si         1.71024        0.11350       10.54130
C          0.00309       -0.50390       10.04081
C          1.58553        1.90509       11.07036
N          2.83200       -0.11976        9.22613
C          3.13642       -1.30935        8.59194
C          2.69291       -2.63144        8.80952
C          3.16391       -3.65381        7.98766
C          4.05598       -3.37901        6.96363
C          4.50265       -2.06966        6.73937
Br         5.71517       -1.82779        5.29824
C          4.05121       -1.00186        7.56168
C          4.28818        0.41962        7.62579
C          5.15668        1.27503        6.74905
C          4.45268        1.70182        5.44174
N          3.38243        2.69589        5.72561
C          3.81442        4.10211        5.85876
C          4.69106        4.55734        4.71981
C          5.54942        3.54165        4.07326
C          5.43783        2.25972        4.44333
O          4.76720        5.72887        4.35880
C          3.53166        0.91178        8.67262
S          1.84022        2.40012        5.09676
C          2.03823        2.75211        3.36122
C          2.35925        1.71745        2.47814
C          2.50738        1.99452        1.11778
C          2.32743        3.30020        0.62972
C          2.47470        3.58356       -0.84726
F          3.53907        2.93734       -1.40056
F          1.38512        3.18985       -1.56124
F          2.65392        4.90335       -1.13046
C          1.97142        4.32054        1.52700
C          1.81955        4.04874        2.88832
O          1.55247        0.98754        5.21834
O          0.93348        3.39036        5.63771
H          1.56534       -0.78047       12.82715
H          3.23204       -0.62018       12.32767
H          2.26977       -1.95673       11.74396
H         -0.68050       -0.35835       10.85101
H          0.05641       -1.54552        9.80188
H         -0.33668        0.04136        9.18515
H          0.88710        1.99116       11.87639
H          1.25220        2.49843       10.24469
H          2.54602        2.24958       11.39237
H          2.02646       -2.83908        9.56962
H          2.84574       -4.62317        8.14303
H          4.39445       -4.14520        6.36080
H          6.03807        0.72274        6.49799
H          5.38802        2.16537        7.29556
H          4.00690        0.82945        5.01146
H          4.36087        4.20624        6.77279
H          2.93426        4.71049        5.84926
H          6.22671        3.81766        3.34516
H          6.08746        1.58892        4.00396
H          3.50131        1.89539        8.98345
H          2.48593        0.75530        2.82919
H          2.75123        1.23363        0.46463
H          1.82073        5.27965        1.17710
H          1.54759        4.80057        3.54086
